 # Version information for this restart file 
 # current date 2022-11-29 16:31:53.675
 # current working dir /scratch/work/courses/CHEM-GA-2671-2022fa/cl6661/comp-lab-class/Week12/Runs/Proton
 # Program compiled at                              Sat Dec 12 18:27:15 EST 2020
 # Program compiled on                                         cs001.nyu.cluster
 # Program compiled for                                                nyu-intel
 # Source code revision number                                       git:8c64c6e
 &GLOBAL
   PRINT_LEVEL  LOW
   PROJECT_NAME proton_aimd_1ps_every0.5fs
   RUN_TYPE  MD
   WALLTIME 21600
 &END GLOBAL
 &MOTION
   &GEO_OPT
     OPTIMIZER  BFGS
     MAX_ITER  100
     MAX_DR     3.0000000000000001E-03
     &BFGS
     &END BFGS
   &END GEO_OPT
   &MD
     ENSEMBLE  NVT
     STEPS  2000
     TIMESTEP     4.9999999999999994E-01
     STEP_START_VAL  500
     TIME_START_VAL     2.4999999999999795E+02
     ECONS_START_VAL    -1.1027618510476257E+03
     TEMPERATURE     3.0000000000000000E+02
     &THERMOSTAT
       TYPE  GLE
       REGION  MASSIVE
       &GLE
         NDIM  5
         A_SCALE     1.0000000000000000E+00
         A_LIST     1.8595758612559999E+02    2.7263853498399998E-01    1.1526100454610001E+01   -3.6414578262600003E+01 \
             2.3173375816020001E+02
         A_LIST    -2.7809524712060002E-01    8.5951591808710006E-05    7.2189048017650004E-01   -1.9844539343859999E-01 \
             4.2409257583420001E-01
         A_LIST    -1.4825808131210000E+01   -7.2189048017650004E-01    1.3590902121280000E+00    5.1498896280349999E+00 \
            -9.9949268450990001E+00
         A_LIST    -1.0372189126880000E+01    1.9844539343859999E-01   -5.1498896280349999E+00    2.6661910891169999E+01 \
             1.1507715495310000E+01
         A_LIST     2.1801346360420001E+02   -4.2409257583420001E-01    9.9949268450990001E+00   -1.1507715495310000E+01 \
             3.0958394565589998E+02
         &THERMOSTAT_ENERGY
              -2.3727908430341846E-03
              -9.1891196253159383E-04
              -1.5107339508448302E-03
               5.8455267263505888E-04
              -6.2400443736633287E-03
               1.2124664534024945E-03
              -2.3258322785734888E-03
              -2.2807721742335455E-03
               7.8334773513552280E-03
               2.3671695062306591E-03
               6.1366119046271563E-03
              -2.6148553890078447E-03
               2.9580496060263401E-03
              -1.2895157211299118E-03
              -7.2015554019535318E-04
              -3.1426282205111867E-03
               1.8040390193055211E-03
              -2.2849231154885574E-03
               4.5057079363645322E-03
              -2.7569217845967647E-04
               2.9128292633851631E-03
              -2.9042740950761159E-03
              -2.3297470407942283E-03
               2.2142392627865970E-03
              -3.6042121490950114E-03
              -7.6717381103628230E-04
              -3.5034304020953450E-03
               3.7188471310540014E-03
               5.7028469110587436E-04
              -1.5857181480879328E-04
              -4.9527923053246711E-03
               3.1403209031322155E-03
               7.9850301838244406E-03
               4.2626303942595428E-04
              -2.2301887447371471E-03
               4.7569557154043618E-03
              -1.1969924909625319E-03
               1.7962797429818132E-04
               1.5743789030538712E-03
              -4.2291044773655403E-03
               3.9761208374806600E-03
              -3.5483578968233679E-04
               3.6226186084714735E-03
               2.9272755500928411E-03
              -8.2351294091150828E-03
               4.3786355266748787E-03
              -2.5893757072520942E-03
               1.0221583365830488E-03
              -4.7259175382796132E-03
               6.6875082012125310E-04
               7.0839621185697014E-04
              -2.9567039577194738E-03
               3.2023957138124098E-04
               8.9128123223929752E-04
              -5.1403370794715440E-03
               4.6142694839648090E-03
               6.3462385175446184E-04
              -2.5168221451006442E-04
               1.9408357533008472E-03
               4.5039274503410288E-03
              -2.4564023042503089E-03
               1.4592644081363182E-03
               5.5095723101911973E-03
               4.3785927058766338E-03
              -1.5320635968541149E-03
               4.4812330994657848E-03
              -3.1094396101037638E-03
               5.4316511573548176E-03
               8.2507798953561570E-03
              -2.7268289342719573E-04
               6.8754403739655580E-04
              -3.1089851060104859E-03
              -1.4658025092808894E-03
               8.9664616315908701E-04
              -2.5555661363410695E-03
              -3.6851599258041871E-03
               2.9483257518413963E-03
              -2.1163471320487033E-03
               4.6220115004551717E-03
               1.7136696126227261E-03
              -1.2469086395403874E-03
              -1.6428214487575312E-03
               1.1679416854186470E-03
              -1.7557513260021455E-03
               2.3919197458074329E-03
               2.1977042433472659E-03
              -3.6796496941499525E-03
               4.4430916871737586E-03
               1.9720972315328909E-03
              -5.4458385500759680E-03
               3.8872707315165253E-03
              -4.4923979788067557E-03
               2.3255768532384705E-03
               5.3753387617551862E-04
              -5.8716099202417455E-03
               4.9198206715299802E-03
               2.9686732534794855E-03
               2.0135847807749691E-03
               3.0044974622474440E-03
               2.7643302772935715E-03
               1.0919314042745780E-03
              -3.0520031682847192E-03
              -1.9399081880593213E-04
              -1.4270849928383522E-03
               1.4715187499442402E-04
              -2.0301504016569179E-03
               2.9081906282202295E-03
              -5.0637423335434689E-04
               5.5909344850876589E-03
              -2.1960799079794209E-03
               2.7401740221818256E-03
               2.5060071091808039E-05
               3.2064673010970962E-03
               1.6248657650777003E-03
               1.7906745838674330E-03
               4.7270017578381627E-03
              -7.9192313696786129E-03
               3.0503433257565841E-03
              -3.9467166764189767E-03
              -9.6687377075755255E-04
              -3.0651589716544441E-03
               2.9592071997439641E-03
               3.9648606342193088E-03
              -3.5206720765138932E-03
              -4.6971565778937893E-03
              -1.0624446345124635E-03
               8.7587281536649641E-04
               4.8209999771264849E-04
               2.6366584484197428E-03
               1.4801074471610968E-03
              -3.7736535892587404E-03
               5.8214196578718260E-03
               3.0889620428813610E-03
              -2.6960662847751310E-03
              -2.8779034973502467E-03
               1.5360016915782803E-03
              -3.7588209510286399E-03
              -5.5817495830335023E-04
              -4.4156383874551343E-05
              -6.0773725001196767E-03
               6.8643376080785795E-03
               3.1677592627813540E-03
               2.1831805410187856E-03
              -1.3522176668187094E-03
              -1.0294614996879440E-03
              -1.2660350828627490E-03
               5.4546118854426010E-03
               6.0014106912337543E-04
              -1.9592992729370092E-03
               6.3164819898133377E-03
              -6.4997858345335283E-03
               3.1357153925368427E-03
              -2.4465650620580596E-03
               7.7490977481522061E-04
               7.6544475238206886E-04
              -3.2680054008314449E-03
               1.5941975535931599E-03
              -3.4631609961594777E-03
              -2.9505604648508601E-03
               4.8955958318368346E-03
              -4.2614672585685742E-03
               9.3994696870387806E-04
               1.8296716791518395E-04
              -1.1534547259722824E-03
               3.6532762203798463E-03
               8.8286500116455061E-03
               3.1080177216947047E-03
              -9.3711630048693411E-03
              -4.7042650500845815E-03
               4.4807190256734948E-03
              -7.8685555923793351E-05
               4.2913551377444445E-03
               5.6162804421305982E-03
              -1.7463017367642436E-03
               4.0911167675866562E-02
               1.5218712893215285E-02
              -4.7747711181861271E-04
              -3.3862969333006781E-03
               1.2046928947192611E-02
               2.8004183306820966E-03
               8.0057842086779388E-04
               4.8330958948216091E-03
               1.5388791470639087E-02
              -5.0651616590257874E-03
              -2.5350663349134838E-04
              -7.0876799544908656E-04
               4.9361290551447664E-03
              -5.0694659340326060E-03
              -8.7366110765903964E-04
              -2.8153667321301986E-03
              -9.7649985061653340E-05
               1.5248816712196470E-03
              -2.1781654693075396E-03
              -4.7669603171201268E-03
               1.2735911166449239E-03
               2.2685788173745936E-03
              -3.9126148980093804E-03
               5.2626269918619657E-04
              -7.2978652304457701E-05
               5.0744565920368681E-03
               1.8342361509143003E-03
               2.9844030279777621E-03
               2.4828622755857952E-03
               3.0944181487450491E-03
              -5.8646949273291850E-03
              -5.8216303418587804E-03
               2.3956068852478145E-03
               5.3317771215750129E-04
              -8.6064373392679035E-03
               8.4218466896936843E-03
              -8.7632142651618457E-04
               9.7909524528929292E-04
               8.2024952802118353E-03
               1.8433319124300444E-03
              -7.1480128731218635E-03
               6.1894522116178021E-03
              -3.3007643342091281E-03
               4.2207466416086816E-04
              -2.7480296687925326E-03
               1.3367645369702971E-03
              -1.7957215265296356E-03
               1.3763747889434415E-03
               1.3647422231996705E-04
              -2.3227900049246734E-05
              -2.6656890778686891E-03
              -4.7781709304437067E-04
               1.3718515776066172E-03
              -5.2692948639277077E-04
              -1.9229331721378263E-03
              -9.4072402833608542E-04
              -1.7215517352957949E-03
               6.1062193928277369E-03
               5.7609814290328250E-03
              -1.9220748980255300E-03
              -5.0357725085296411E-04
              -1.9736538766811768E-04
              -5.1113755082669672E-03
               2.0212216470320774E-03
               3.9091715707047030E-04
               2.4728272575980575E-04
              -2.1396829236451096E-03
               1.5025825263393325E-03
               1.4750036098173870E-03
              -8.4535942056910554E-04
               1.9879261340257812E-04
              -2.5439251519769712E-03
               3.6801253836850063E-04
              -2.3638382115099628E-03
              -6.7908104753510259E-04
              -3.2519579109486448E-03
              -9.3851841597581591E-04
               1.2662554004487837E-03
              -4.1402658953354253E-03
              -7.1173958287592360E-04
               5.7268682980988993E-03
              -1.9136662420857547E-03
               5.9848442563173899E-04
              -1.1771507474961174E-03
               2.7928788124351449E-04
              -2.0500864653516804E-03
               2.6450485331837082E-03
               3.9379365097719429E-03
               3.6364513385445441E-03
              -4.4558686112107623E-04
              -6.8759918080928812E-04
               1.7859630267640901E-03
              -2.4241522591064582E-03
               5.0124513560963271E-03
              -6.3300979219766112E-03
               1.2644380775508324E-03
               6.1064926785946031E-04
              -3.9067992929928052E-03
              -3.1988998570776426E-03
               8.4153637888701740E-04
              -2.2701895728901725E-03
              -2.2810619049832498E-03
              -3.3190828100278973E-03
               5.1962719847374918E-03
              -4.6586478696361859E-04
              -1.4468352702897891E-05
              -3.5906992217983862E-03
              -4.5453157382061250E-03
               2.2825742532340616E-03
               7.2811448961510247E-03
              -2.8410968888321593E-04
              -1.3219194877886415E-03
               4.8127214539999460E-03
              -5.7418701547022151E-03
              -1.3696169292149391E-03
               2.5369543619745008E-03
              -3.5499564902887058E-03
              -6.5205050297631039E-04
              -3.5023600008284147E-04
               1.5528456154009318E-03
              -5.2892375651981038E-04
               8.5639924900180013E-03
              -7.8012919963756019E-03
               3.9047056880619326E-03
               1.5480301797939013E-04
              -3.0980051765202216E-03
               2.2247744731664711E-04
               3.5515265625508339E-04
               2.8363049912460392E-03
               5.0557884794124666E-03
               1.4985371798395700E-03
              -5.3709190219257911E-03
              -3.7987727173011787E-03
               1.0905702724706070E-05
               1.5755515093978771E-03
               8.0558980362670847E-04
              -5.8625351940614419E-04
              -3.7335542450882505E-03
               2.0715031376264247E-03
               1.8806084399392525E-03
              -2.3102172075525288E-04
              -2.3220830068632617E-03
              -3.2832224070394171E-03
               3.3510771175565284E-03
              -1.8012022091645910E-03
               2.7418699148916929E-03
               2.0175239050622355E-03
              -2.0742876795257765E-03
              -3.4882750189484297E-04
              -4.6779311343965258E-03
               1.0174453098325379E-03
               5.9513946759868304E-03
               2.7254255161365884E-03
               1.0277230161190296E-03
               1.2341454968196495E-03
              -2.2298468983746166E-03
              -3.0893851028683033E-03
               9.2347391578940553E-04
               3.1299932976564986E-03
               4.3976669828691842E-03
              -1.8753630729332891E-03
               1.4076816076429308E-03
               1.9903001563237460E-03
               1.0378599686811690E-03
               2.8665276200515082E-03
               4.3501159169594024E-03
              -7.3859418354846307E-04
               1.5622218764811314E-04
               1.9329635161398349E-03
               8.1258890556357437E-04
               1.1770927524371375E-04
               1.3111537175442246E-03
               1.0331862226873267E-03
              -7.3039921177876581E-04
               2.0785358030527500E-03
              -4.4296780062453630E-03
               7.7910377033487245E-04
               1.3481581267310474E-03
              -6.4174737077514910E-04
               4.8731124115959437E-03
              -3.0058949848518280E-03
               1.0645450205428164E-03
              -1.9170109951239371E-03
               3.8210322658711157E-03
              -1.5196438201594432E-03
              -5.0312923901985234E-03
               3.2446027387167688E-03
              -3.5618910633911879E-03
               7.8774623746801151E-03
               2.4138245579892418E-03
               1.9066277429382412E-04
               1.6669580061520017E-03
               9.8325985333641008E-03
               5.4479623312772693E-04
              -1.3084810821026832E-02
              -1.1988603776029779E-03
              -4.0970023689376684E-03
              -1.6220816820252430E-03
               1.2005790385999512E-03
              -2.0291932369932587E-03
              -1.6568605812318300E-03
               4.6427225184791443E-03
              -5.0160393504431414E-03
              -6.2558097211479089E-03
               1.0268490290641454E-03
               2.5240896181535481E-03
               1.6221793078968340E-03
               5.4795997096885446E-04
               4.0660591424323492E-04
              -2.7663824033372789E-03
              -5.9299033105539760E-03
              -7.4842061128378820E-04
               8.4137654919714203E-03
              -2.4800439970173020E-03
               4.7532842033219114E-03
               3.5318492188050506E-03
              -8.7585741744950353E-04
               3.1277725261129275E-03
              -7.5286595543495589E-04
              -6.0430025088740683E-03
               8.2194464615190858E-04
               4.0380736280783997E-03
               3.8069752825585315E-03
               1.7846921450467081E-04
               1.4563431948908128E-04
              -2.4470509774199298E-03
              -2.3212026890578855E-03
               2.1507406693580854E-03
               6.1198646761626337E-03
               2.5219573718757620E-03
              -5.5008719205398501E-03
              -2.0080485631687418E-03
               2.4006516075254034E-03
              -7.2688294078332768E-03
              -2.6560972785213449E-03
               2.3647304634325248E-03
               8.6989428997120348E-04
              -5.5061003679051019E-04
               1.6769547624101598E-04
              -4.7751680162222325E-03
               8.7521378438635709E-04
               5.3389163449611005E-03
              -2.6593109689519038E-03
              -9.1992236461804506E-05
              -5.3490762389103014E-04
              -6.2519326739934845E-04
               2.0726250349486428E-03
              -3.3608631660230408E-03
              -3.3109291127756248E-04
              -1.0098656179459398E-03
               2.0628365982432763E-03
               1.1181672862777656E-03
               1.4871844529482457E-03
              -6.2029492046997651E-03
               1.6464978348546457E-03
               7.4742701660594924E-03
              -1.3624201668790352E-04
              -1.0995173554092614E-03
              -2.4471497602799605E-03
              -1.2972973310640440E-03
               3.5107766444754389E-03
               4.2332940116684321E-03
              -3.6916675003095638E-04
              -1.3766984033273945E-03
               5.6025668302730396E-04
              -6.5728755316885826E-04
               7.3828760761906424E-03
              -1.8619212487172828E-03
              -2.1354567407928481E-03
               3.2136276180563354E-03
               4.0828537841210051E-03
               7.4885282211667233E-03
               4.9222314494726596E-03
              -2.0630532933367555E-03
              -1.9609883993754592E-03
              -4.3851056007601879E-04
              -3.1716322444917070E-03
              -7.6347630799464212E-03
               4.5662105239193439E-03
              -3.0592883341978443E-04
              -4.7797071525562413E-05
              -3.1262875264184615E-03
               1.8303692333987334E-03
              -2.6475060895056984E-03
               2.3228827808728396E-03
               2.7778291864474628E-04
              -3.1470605311072805E-04
               5.0631875172793403E-03
              -3.3491132591502689E-03
              -5.1104977949709986E-04
               4.4880499003364903E-03
               7.1673196815873657E-03
              -6.4004041259748227E-03
              -1.1705570816106683E-03
              -3.9577981270065424E-05
               1.9104199842422721E-03
              -3.5647671091316798E-03
              -3.5269135541687478E-04
               3.0756469004737004E-03
              -4.1558417368454973E-05
              -1.7229533557569915E-03
               6.1559005915938240E-03
              -8.6111560463243350E-04
               8.5751854675291837E-04
              -5.6339396527008683E-03
               1.4318988823870866E-03
              -8.0326171605864098E-04
               3.5466786323296436E-04
               1.0749254277880170E-03
               3.1888910959440011E-03
               9.4673045376054824E-04
              -6.4616906555092194E-04
              -4.5098794226723932E-03
              -5.4055422413725766E-03
               5.7801475453892514E-03
              -3.3267086605511193E-05
              -4.1817906677880750E-04
               2.3789438582751381E-03
              -1.9971355929123522E-03
              -5.2812235929336378E-03
               3.6865131737559972E-03
              -7.5486430377751631E-03
               6.6348700992121838E-03
               5.8584043431867891E-03
               4.7734590842225108E-03
               2.4417124354202575E-03
              -1.8517966249978785E-03
              -8.2388962224457321E-04
              -9.8296653783429104E-03
               5.8259786101440272E-03
              -3.1434339490865278E-03
              -5.1562466110465031E-03
              -2.5909267351583549E-04
               1.0821196509395894E-03
               1.5614088578549848E-03
               4.0003308846402255E-03
               5.0819668933134513E-03
              -3.3685300471303207E-04
              -2.7184901543599723E-03
              -7.6409582322242630E-03
               2.1521923844059700E-03
               7.3650503719239568E-04
              -4.5446793546007570E-03
               3.7477207217298161E-03
               5.5310990162173983E-03
              -3.3671229116965127E-03
              -8.0147532087140969E-04
               8.4251211081100123E-04
               2.5807037516793522E-03
              -1.4545810209464372E-03
              -3.2982224322548773E-03
               8.9667479703065293E-04
              -1.2226819911121318E-03
              -5.1023414142126829E-04
               6.3732447201489545E-03
               4.9489636951815267E-03
              -4.1631069225697591E-03
              -2.2005436515494066E-03
               1.6041160793154466E-03
              -5.9291571185704391E-03
               2.0669842779746693E-03
              -3.0445590860545750E-04
              -2.2847682652222124E-06
               8.7958260505305948E-04
               3.0535942239984818E-03
               3.1100357124370839E-04
               1.1647427576170532E-03
              -1.2216176597218176E-04
              -2.7878625919739580E-03
               8.5312092534422211E-04
               2.5153826299029801E-03
               2.7985836968393387E-04
              -6.6773800068437050E-04
               3.6312419050213928E-03
               3.5397910322438582E-03
               4.2971110091894566E-03
              -9.3636868369790169E-03
              -3.3232038358602255E-03
              -5.5817752107792916E-04
              -5.8563721108703066E-05
              -2.2282834109641557E-03
              -8.0202660384882593E-03
               5.4500627957019166E-04
              -7.4179259080977156E-04
               7.9591633365906668E-03
               1.3043323711822955E-03
               4.7880166941464053E-03
              -1.3550922041004554E-04
              -1.0628864913468285E-03
               1.8483168638937172E-03
               3.4383441650258058E-05
               6.9096499290391801E-03
              -6.1887699728908046E-03
              -4.5758242882338257E-03
               5.9126952596862637E-03
              -6.6765291296015340E-03
               1.3796422252671640E-03
              -4.1966969745023995E-03
              -4.2855941090766368E-03
              -4.0827537219276433E-03
               4.1555295596847541E-03
              -1.7880531760558708E-03
               2.7645588892469602E-03
               1.2303922369578699E-02
              -3.6182446567328439E-03
         &END THERMOSTAT_ENERGY
         &RNG_INIT
Wiener process for Thermostat # 1        1 F T T  -1.5505429657892764E+00         661802595.0        2026459976.0        3136775027.0        3268219721.0        1056216878.0        3744216088.0             12345.0             12345.0             12345.0             12345.0             12345.0             12345.0             12345.0             12345.0             12345.0             12345.0             12345.0             12345.0
Wiener process for Thermostat # 2        1 F T T   1.5766939834860993E-01        2521559082.0        1979391111.0        3972826820.0        2839528192.0        3960449033.0        3051881342.0        3692455944.0        1366884236.0        2968912127.0         335948734.0        4161675175.0         475798818.0        3692455944.0        1366884236.0        2968912127.0         335948734.0        4161675175.0         475798818.0
Wiener process for Thermostat # 3        1 F T T  -1.6802103653762466E+00        2464096834.0        3454226368.0         668358963.0        3607867155.0        2139338144.0        1695442074.0        1015873554.0        1310354410.0        2249465273.0         994084013.0        2912484720.0        3876682925.0        1015873554.0        1310354410.0        2249465273.0         994084013.0        2912484720.0        3876682925.0
Wiener process for Thermostat # 4        1 F T T  -9.2120442907176847E-01        3007810664.0         626544053.0           5688727.0        2019501767.0        4050809287.0        2188826537.0        2338701263.0        1119171942.0        2570676563.0         317077452.0        3194180850.0         618832124.0        2338701263.0        1119171942.0        2570676563.0         317077452.0        3194180850.0         618832124.0
Wiener process for Thermostat # 5        1 F T T   1.9586792436148486E+00        3119398129.0        2238966874.0        1731687009.0        1729823850.0        3912388439.0         182524877.0        1597262096.0        3906379055.0        3312112953.0        1016013135.0        4099474108.0         275305423.0        1597262096.0        3906379055.0        3312112953.0        1016013135.0        4099474108.0         275305423.0
Wiener process for Thermostat # 6        1 F T T  -2.2012851380256623E-01         527820745.0        2447393615.0         338698828.0         653439858.0         976211817.0        3944196308.0          97147054.0        3131372450.0         829345164.0        3691032523.0        3006063034.0        4259826321.0          97147054.0        3131372450.0         829345164.0        3691032523.0        3006063034.0        4259826321.0
Wiener process for Thermostat # 7        1 F T T  -1.2191095662093037E-02         167278661.0        2992638024.0        1197931920.0         124710794.0         889033703.0        2194094787.0         796079799.0        2105258207.0         955365076.0        2923159030.0        4116632677.0        3067683584.0         796079799.0        2105258207.0         955365076.0        2923159030.0        4116632677.0        3067683584.0
Wiener process for Thermostat # 8        1 F T T  -2.6373530393371375E-01        2923147749.0        3809475671.0         892364519.0        3114385888.0        3523415917.0        3402922821.0        3281794178.0        2616230133.0        1457051261.0        2762791137.0        2480527362.0        2282316169.0        3281794178.0        2616230133.0        1457051261.0        2762791137.0        2480527362.0        2282316169.0
Wiener process for Thermostat # 9        1 F T T  -1.2388913960989989E+00         276694386.0        3384434371.0        2194062143.0        3864498526.0        2498625561.0        4174179731.0        3777646647.0        1837464056.0        4204654757.0         664239048.0        4190510072.0        2959195122.0        3777646647.0        1837464056.0        4204654757.0         664239048.0        4190510072.0        2959195122.0
Wiener process for Thermostat # 10       1 F T T  -6.9271884074884071E-01         298842605.0        4183294382.0        3769908432.0        1623977651.0        3452521187.0         349927101.0        4215590817.0        3862461878.0        1087200967.0        1544910132.0         936383720.0        1611370123.0        4215590817.0        3862461878.0        1087200967.0        1544910132.0         936383720.0        1611370123.0
Wiener process for Thermostat # 11       1 F T T  -3.9199517781213300E-01        1183014876.0        2469777470.0        2706060047.0        1374668043.0         490283634.0         131761905.0        1683636369.0         362165168.0         814316280.0         869382050.0         980203903.0        2062101717.0        1683636369.0         362165168.0         814316280.0         869382050.0         980203903.0        2062101717.0
Wiener process for Thermostat # 12       1 F T T   1.2248374085476998E+00         744312290.0        1838623065.0        1895433531.0        2930723882.0        3034111406.0        1223209339.0         272317999.0         166758548.0         310112982.0         201045826.0        1680231254.0         118290799.0         272317999.0         166758548.0         310112982.0         201045826.0        1680231254.0         118290799.0
Wiener process for Thermostat # 13       1 F T T   1.6053528300026945E-02         341235087.0         365462780.0         607175623.0        3292057964.0        1611524565.0         256574977.0        2245755202.0        1652682525.0        2865544364.0         721509566.0         209733568.0         592362218.0        2245755202.0        1652682525.0        2865544364.0         721509566.0         209733568.0         592362218.0