 # Version information for this restart file 
 # current date 2022-11-29 19:29:19.284
 # current working dir /scratch/work/courses/CHEM-GA-2671-2022fa/cl6661/comp-lab-class/Week12/Runs/Proton
 # Program compiled at                              Sat Dec 12 18:27:15 EST 2020
 # Program compiled on                                         cs001.nyu.cluster
 # Program compiled for                                                nyu-intel
 # Source code revision number                                       git:8c64c6e
 &GLOBAL
   PRINT_LEVEL  LOW
   PROJECT_NAME proton_aimd_1ps_every0.5fs
   RUN_TYPE  MD
   WALLTIME 21600
 &END GLOBAL
 &MOTION
   &GEO_OPT
     OPTIMIZER  BFGS
     MAX_ITER  100
     MAX_DR     3.0000000000000001E-03
     &BFGS
     &END BFGS
   &END GEO_OPT
   &MD
     ENSEMBLE  NVT
     STEPS  2000
     TIMESTEP     4.9999999999999994E-01
     STEP_START_VAL  1999
     TIME_START_VAL     9.9949999999998238E+02
     ECONS_START_VAL    -1.1027618510476257E+03
     TEMPERATURE     3.0000000000000000E+02
     &THERMOSTAT
       TYPE  GLE
       REGION  MASSIVE
       &GLE
         NDIM  5
         A_SCALE     1.0000000000000000E+00
         A_LIST     1.8595758612559999E+02    2.7263853498399998E-01    1.1526100454610001E+01   -3.6414578262600003E+01 \
             2.3173375816020001E+02
         A_LIST    -2.7809524712060002E-01    8.5951591808710006E-05    7.2189048017650004E-01   -1.9844539343859999E-01 \
             4.2409257583420001E-01
         A_LIST    -1.4825808131210000E+01   -7.2189048017650004E-01    1.3590902121280000E+00    5.1498896280349999E+00 \
            -9.9949268450990001E+00
         A_LIST    -1.0372189126880000E+01    1.9844539343859999E-01   -5.1498896280349999E+00    2.6661910891169999E+01 \
             1.1507715495310000E+01
         A_LIST     2.1801346360420001E+02   -4.2409257583420001E-01    9.9949268450990001E+00   -1.1507715495310000E+01 \
             3.0958394565589998E+02
         &THERMOSTAT_ENERGY
               1.0665777666214912E-04
              -1.0582671531108020E-04
              -5.5535772377165111E-03
              -2.5529425420047292E-03
              -1.7535176717366187E-02
               1.8255370770015530E-03
              -6.3681285266656441E-03
              -1.4549235950276429E-03
               9.8943293748901002E-03
               4.3103907517464566E-03
               8.4361621301589571E-03
              -8.0724735525413945E-04
              -7.9294943397536944E-03
              -7.2867572846612629E-03
               2.0835966565127856E-03
              -1.1800186143747305E-02
               7.4832928259555382E-03
               2.5215592043148654E-03
               3.5093524187754131E-03
              -1.4081393263893228E-03
              -1.7187600140559866E-03
               1.6158486284799913E-02
              -1.6097326138511874E-02
              -7.4886399393036037E-03
               2.9946981058827453E-03
              -2.6735059677203536E-03
               1.0732041119537541E-03
               1.0889349270079788E-03
              -2.1484277765646854E-03
               3.6173009236566897E-03
              -2.8749230180180538E-03
              -7.8704154407985873E-03
               1.3692953133610793E-02
              -3.5999193770589219E-03
               2.9646970457098826E-03
               1.3164969694981505E-02
               4.1752714085768828E-03
              -6.3412653683257115E-03
              -3.5885462538937278E-03
               6.1602154278987626E-03
               5.5968625814225223E-03
              -8.6607271839783759E-03
               5.6473467956975549E-03
               2.2303403445271914E-03
               6.1410446620128699E-03
               7.9375284478353288E-03
              -5.4277803745766667E-03
              -1.2178846581161939E-03
               1.4418757756749037E-03
              -1.2878120992299304E-04
              -1.8146089066082942E-03
               5.4848779730367276E-03
              -9.0948244021852344E-03
              -6.3702310779997729E-03
              -4.9093370381300154E-03
               6.3456353757136595E-03
               1.4377714255024957E-03
              -8.7630786471090388E-03
               3.3282011800687076E-03
               1.0934603570521490E-02
              -8.8125666420193181E-04
              -6.4010223925703592E-03
               2.2808898938250294E-02
              -2.2886181015913769E-03
               7.5431650300976779E-03
               7.4690134390547527E-03
              -5.8108723254964717E-03
               7.9478601971938803E-03
               1.5495393188213066E-02
              -2.7399893064628642E-03
              -9.6457277915944772E-03
              -4.7734010428599326E-03
              -7.0018527506943784E-03
               2.8680340379652258E-03
              -3.1315790611570402E-03
              -1.1545395404766812E-02
               7.1041926008761132E-03
               3.8933637441719462E-03
              -1.4300654411205824E-04
              -4.3261409693039878E-03
               8.5633309596187934E-03
              -4.0526492204264438E-03
               3.4062495040274544E-03
              -7.7665751675266609E-04
              -4.1102690011018646E-04
               1.1764907878690233E-02
              -4.1662881045338484E-03
              -4.5539620309258632E-04
               6.3884232736119810E-03
              -9.4130033447906835E-03
              -2.4191525468057241E-04
              -5.1174094873199611E-03
               5.4410065826501304E-03
              -5.2579563810462989E-03
              -2.6254103797663914E-03
               4.0448222767800468E-03
               7.6178402034622885E-03
              -7.3632366624655856E-04
               1.0326966380843822E-02
               8.7809930837782287E-04
              -7.6468467029220128E-03
              -4.8652900264244446E-03
               2.6344158062190058E-03
              -8.2028268442792679E-03
              -1.6080087191474486E-03
               4.8420404435474181E-03
               7.6374604426460383E-03
              -9.3093745943658498E-04
               8.5580333693420184E-03
              -9.3009200680556417E-03
               2.1308323081093594E-04
               3.6040641168108619E-03
               7.7551577148847950E-03
               3.4483392654558642E-03
              -3.2002355092326283E-03
              -4.0507387124704003E-03
              -5.9969270620540260E-03
               5.5632864619004959E-03
               3.6510190686753763E-03
               1.2898178454961971E-03
              -2.3174081097208934E-03
               1.2029378163720054E-03
               5.9401987225131837E-03
              -2.6527917165144739E-03
              -7.1114527914002412E-03
              -5.5868673350702247E-03
               7.6910361946451499E-03
              -3.3414367952001606E-04
              -1.7679132722330253E-03
               2.7552716587741295E-03
              -9.4944731287680028E-04
               7.9948916412902037E-03
               2.4365643533724611E-03
              -5.0421232568291638E-04
              -6.3016295303759563E-03
               1.9213449474897776E-03
              -4.2625547456497615E-03
              -8.4413381521463316E-04
              -6.1524674758574784E-03
               1.3762701478076712E-03
              -1.0321168462122868E-02
               7.9288161240181221E-03
               1.5385686397526998E-02
              -2.5187701850676519E-02
               5.0078300851138669E-03
              -5.5042109527671870E-03
               4.3440106125597301E-03
               2.0311781909329333E-03
              -5.9256051589646867E-04
              -8.7457512926009410E-04
              -1.7249337128962022E-02
               6.3767163657669750E-03
               2.4321294950356382E-03
               1.0592777740505341E-03
               2.3985313199117991E-03
               3.5828279841457452E-03
              -3.9605981893591803E-03
              -9.3085470446969531E-04
               5.5639103354063895E-04
               1.5731691779193424E-03
              -5.7034916106917088E-03
               1.5475712863539705E-03
              -4.5182345443604208E-03
               2.5233111356367157E-03
               8.9288228714586165E-03
               2.6763633323083461E-02
               1.6686522205309007E-03
              -2.1440424391991068E-02
               6.2562479913829926E-03
              -3.8548488905596756E-03
              -2.7586115211146204E-03
               3.0229610516882885E-04
               7.9005133702044344E-03
              -2.0850844084654564E-03
               4.0382745638581713E-02
               1.2565654788752351E-02
              -4.2335355088904993E-03
              -5.8241429009036798E-03
               1.3096272834074272E-02
               5.2289228438651258E-03
              -2.3727344933347277E-03
              -1.2048024003947059E-02
               3.5776578003387759E-02
              -7.9941211064115929E-03
              -3.2629391115106560E-03
              -2.2874091113037802E-03
               1.6530516149559818E-02
              -2.0922966410373872E-03
              -3.3926239963481637E-03
               2.2143217438696503E-03
              -6.8336415203086856E-03
              -6.6012772379931133E-04
               2.2754848056717554E-04
               1.8895990024181426E-03
               5.3093815604146315E-03
               1.2431267913347952E-02
              -4.3373177101578026E-03
              -7.0110683461782645E-03
              -7.3476852316951436E-03
              -6.5811056085432768E-03
               9.1597356979304673E-03
               7.8271304198729557E-03
               2.2420451730101078E-03
               3.1291787917033143E-03
              -1.0979310303908321E-02
              -9.1829453548889009E-03
               9.6862603579700220E-03
               4.2810656023131496E-03
              -7.3599402360476629E-03
              -2.6804768681882420E-03
              -4.0600371171508418E-03
               1.4188055244670843E-03
               2.6025853127243184E-03
               8.0706466643235986E-03
              -5.8862865684786150E-03
               8.6787217201346745E-03
              -1.8481333071054252E-02
               1.4376987686324340E-02
              -2.7608491795758617E-03
               7.7297995693792337E-03
              -1.7024708343443273E-03
               6.9961219866840427E-04
              -9.4341576472026390E-03
               6.6193926518008442E-03
               1.1566663865580569E-02
              -5.8838522326381528E-03
              -9.0693080742544549E-03
               4.4897643519062058E-03
               4.3803216760721396E-03
              -2.6878906825512705E-04
              -3.8114951106500354E-03
              -4.4696287255846382E-03
               6.3144595635525776E-03
               1.5695325729431612E-03
              -2.4160232611630810E-03
              -5.2073948803512942E-03
              -8.8893570898484868E-03
               2.7553959043004586E-03
              -3.6712748045564122E-04
              -2.3214904063759193E-03
               5.6212716572579535E-03
               4.0378418943385645E-03
               7.8062884210907905E-03
              -1.7908124370529710E-03
              -2.7043768698742869E-04
               6.1535968755988060E-03
              -1.3072433261687286E-03
               2.0118104748858899E-03
              -5.2042856410487890E-03
              -4.7643272341163787E-03
               1.3659083713521552E-02
              -6.4499372057481132E-03
              -8.0663522650425024E-03
              -8.0343998276799725E-03
               9.3052573033552896E-03
              -4.1026262279115662E-03
              -3.2248838701887488E-03
               8.6648131153782195E-03
              -6.8446353622208011E-03
              -5.6491773061071032E-03
               7.5365266767553089E-03
               9.4560306204130931E-03
              -3.3686302638151686E-03
               1.7927748826633322E-04
              -3.9783057619969010E-03
              -5.5183846000093888E-03
              -1.7435870487429801E-03
               4.2957071117170724E-03
              -4.1756882400003333E-03
               6.8829032742150024E-03
               5.5035268871451212E-03
              -6.7419221995862954E-03
               9.8027159823046973E-04
               8.6436354003572007E-03
               4.2286456553912652E-03
              -5.5084378557105421E-03
              -1.3235564305418598E-02
               9.5811755634077050E-03
              -9.2133284139693018E-04
              -6.1753352225898724E-03
               1.0111940011447587E-03
              -5.0629683300353395E-03
               4.5570802871482182E-03
               1.5895156639816006E-02
              -2.3583814956383295E-03
              -1.5453848344350511E-03
               3.8558749471408627E-03
               1.1677819947365185E-03
              -1.0596062331705092E-03
              -1.4474982038344458E-03
               9.9055205485013478E-03
              -9.0489636005807372E-04
              -5.9876130702265322E-03
              -1.5343245856401359E-03
               1.1684856041868925E-02
               2.0363503300338268E-03
              -1.3818724417033506E-02
               2.1009672527345681E-02
               4.4673876888727468E-03
              -1.2175143318308261E-02
               2.0957347937820120E-03
              -2.2841936318694469E-03
               1.0446739021392427E-03
               1.1916099128323865E-02
               3.7366435730119374E-04
              -1.4586628529509402E-02
               1.7174498390298374E-03
               1.0330384563151515E-03
               1.4666558984938259E-02
               1.3735157673655869E-02
              -2.2700221887988448E-04
              -4.7230578475933420E-03
              -3.6005040337458742E-03
               1.5467429445024362E-03
               2.5757335039745918E-04
              -7.0664563946110093E-03
              -1.1104400482586624E-02
               9.0249972010134176E-03
              -1.3804278195748143E-02
              -2.7899136190294919E-03
               5.3878645906208162E-03
              -3.2080923381865901E-04
              -2.7781899171174982E-03
               5.6091637376183782E-03
              -6.1642028953351295E-03
               1.3674671689684705E-02
               9.9067713703229910E-03
               3.0331996754236500E-03
               2.6358361628794780E-03
               8.0605368159465847E-03
              -9.9920747341797917E-03
               6.9795881309317317E-03
               7.4565100164306350E-03
               1.3157097767629614E-03
               3.1329118244663102E-05
              -5.4310745495896292E-03
               3.6892096994267615E-03
               3.0725648806110726E-03
               8.7513925510494042E-03
              -2.4291706210451229E-03
              -5.2736245787262971E-03
              -6.9903349949553750E-03
               1.2067140602840703E-02
              -1.9960368310359641E-03
               1.9204118437840733E-03
               1.2460498666320751E-03
               5.9750591302863360E-03
              -1.0921740002704686E-02
               1.1898581717508312E-02
               2.6125549422925266E-03
              -4.9198086938897663E-03
               7.0917742481333796E-03
              -8.0085520427735871E-03
               6.0015164860398370E-03
              -1.1519168357877745E-03
              -4.1422652582689531E-03
               6.3189489791982741E-03
              -8.0541545250420142E-03
              -1.6161158045053008E-02
               1.0611178475169059E-02
               6.2967132867436841E-03
              -6.7005725236394965E-03
               2.1238902809009096E-02
              -2.3271515662603832E-03
              -6.2941332173272720E-03
               4.0274988074273507E-03
               1.8506220689935619E-02
              -7.5638035023600858E-03
              -9.0983306073803977E-03
              -9.4405545485305546E-03
              -2.7715612149119368E-03
               6.2723775769604490E-03
               4.4797479597027024E-04
              -2.7906123483281281E-03
               5.5193947626344508E-03
               8.6416989149104059E-03
              -1.3591863425351070E-02
              -2.0335913005637828E-02
               4.1185929044807940E-03
               1.0238215695574692E-02
               7.0734225409400430E-03
               7.3600911406592404E-03
              -4.1286172099447380E-03
              -3.6549340845818566E-03
              -1.0694932419776742E-02
              -3.1507948237783365E-03
               1.4494337363867583E-02
              -4.1352428302734393E-03
               1.1820710814353541E-02
              -4.7019964460875540E-04
              -7.7982373121422335E-03
               7.6685885309272749E-03
               3.4918202937464244E-05
              -8.6122594288069194E-03
               1.2271791728070962E-02
              -4.8326680694317217E-03
               3.9352389811774290E-03
              -1.0883925094997637E-02
              -2.3887993200502719E-03
              -1.3629824297670399E-03
              -2.3840479964111197E-03
               4.1636953059204021E-03
               6.6654408049650923E-04
              -1.0259509035879449E-02
               4.9548750183490749E-03
              -1.3553418730648470E-02
              -2.3809594674668384E-03
               5.3377350112218513E-03
               1.2385412448514370E-03
               2.8766364062476936E-03
               3.0039845638818008E-04
              -4.9895361988415285E-03
              -3.7170053135214673E-03
               3.3053332292650641E-03
               9.3485108551708967E-03
               1.5758940084003737E-03
               2.4983345740380520E-03
              -9.6562058774531698E-04
              -4.1685315479182575E-04
              -3.3961359227424760E-03
              -3.6040902813854137E-04
               6.2919110649238431E-03
              -8.5159159825839775E-04
              -8.4624159396747278E-03
               1.5316958218381362E-02
              -3.9728377744766155E-03
              -5.7906031462762794E-03
              -3.9391120181036157E-03
              -1.7694680123150029E-05
               2.7366496356090167E-03
              -4.3528363372631184E-04
              -7.5631708574601759E-03
              -1.3143076414559248E-02
               1.2188865795748139E-02
               1.3644112550802378E-02
               4.0855169583395102E-03
              -1.1050166011132529E-02
              -1.9211579211627153E-04
               3.3641180432265752E-03
              -5.9263405280711901E-04
               7.8108663123616761E-03
              -8.4417546336672765E-04
              -1.8208901295552270E-02
               2.4887891834681999E-02
               4.7302660821189743E-03
               9.5717255234773306E-03
               2.1733099408838999E-03
               1.5436371622434598E-02
               6.7884204317817803E-03
              -8.7699678600011832E-03
              -8.1727612181617011E-03
              -1.1017988251497900E-02
               9.4686932773977595E-03
               1.9745047082686306E-03
               4.3657015832289066E-03
              -2.9269485794127673E-03
              -1.1979367552852437E-02
              -1.6051864282545205E-02
               5.4826279566114024E-03
              -9.3279892661377716E-03
               1.0935203919264487E-02
               8.7885170606131456E-03
              -3.8106183827791890E-03
               6.9023055789614275E-03
               5.6904990616010662E-03
               2.7454117771047149E-03
              -1.3335238706573672E-02
               3.2847262030195118E-03
               8.0963854268045216E-03
              -1.0369570306196762E-02
               3.6404952821145382E-04
               7.5415188465266297E-06
               3.9223670013823807E-03
              -1.8322775752164747E-03
              -3.1100559950352868E-03
               1.0361571621728866E-02
              -9.9441180432048104E-04
               2.6301718608041091E-03
              -5.0337193693683092E-03
              -3.8313594323396388E-03
              -1.9190976274614025E-03
              -3.5080609072166420E-03
               4.0083408730830824E-03
               2.8940896830305452E-03
              -4.0631164875262462E-03
              -1.6245326340489027E-03
              -3.8953673596328004E-03
               3.2987804885428063E-03
               8.1110595369880828E-03
               4.7366640865494872E-04
               7.4133531263904338E-03
              -2.8009236630366849E-03
               8.3749972207919441E-03
              -4.2072824345213136E-03
              -2.6925676479821765E-04
               6.0378074726382827E-03
               3.7935601711666174E-03
               4.8727249833548647E-03
               7.9952812364325219E-04
               6.2038213095480920E-03
               2.8225141756396043E-03
               1.4588660229964462E-03
              -1.3413709011886515E-02
               1.3984397115153700E-02
               8.0194487695973496E-03
              -1.5408830228900050E-02
              -1.0293997180721083E-02
               8.5033211896395379E-06
               7.7039341502513582E-03
               3.7699136099328305E-03
              -7.5398206979659117E-03
               4.7591220250191597E-03
               1.3811432587108044E-04
              -1.0295635396070847E-02
               9.6934368354808544E-03
              -2.0676682756456250E-02
              -2.7165953038194948E-03
               1.3015659396494236E-03
               7.7132106415753491E-03
               3.8462064992132788E-03
              -2.2188690665529590E-02
               8.1815415466246662E-03
               4.8762832398456038E-03
               2.1713358981734765E-03
               3.9678958361716926E-03
               4.8181726209848893E-03
              -5.7113749329148989E-03
              -1.1730445431622424E-03
               1.3762847316369002E-02
              -5.3679822468278970E-03
               5.0763287648513400E-03
              -2.4226327637376869E-03
              -7.2870167393106339E-03
              -8.2960943983356860E-03
              -3.8006922431216918E-04
               1.5846394160457901E-03
               1.2740649361837443E-03
              -6.2417967259671746E-04
              -5.4113699475751269E-03
               4.1358554064886569E-04
               4.3490828053155814E-03
               9.5422241068289580E-04
              -1.7755588711533515E-03
              -1.3371018844400978E-03
               6.1545345779225784E-04
              -8.6503477209462780E-04
               9.2977776016647524E-04
              -9.0566851923086879E-04
               6.8303523395397241E-03
               5.2852580891389941E-03
              -1.9325714349926137E-02
               1.0544676888370116E-03
              -1.7799777131568177E-03
              -2.6749916942342207E-03
              -6.0918291854847773E-04
              -1.9492981191706698E-03
              -2.7080752638114149E-03
              -1.8062875217734170E-03
               1.0536589064014274E-02
              -5.2219007173409885E-03
               2.7506045038359884E-03
               4.5359311931536432E-03
               8.8599997876588594E-05
              -8.2360151129095205E-04
              -3.3215738161095267E-03
               3.7477159434169366E-03
              -1.1421360840739563E-03
              -6.2406681198402206E-03
               1.8947629697861298E-03
              -2.5418531074815629E-03
              -1.0444713759003669E-02
               2.6389486295327370E-03
              -4.0659438309278975E-03
              -3.6518053863438108E-03
               4.7430008238736861E-03
               1.2973560555267032E-02
               1.5427970181230951E-02
               2.4534113992208889E-03
              -6.6392830830474302E-03
         &END THERMOSTAT_ENERGY
         &RNG_INIT
Wiener process for Thermostat # 1        1 F T T  -1.3877964172148927E+00        3819968671.0        1923139303.0        2505174482.0        1129753110.0        1102497896.0        2318485114.0             12345.0             12345.0             12345.0             12345.0             12345.0             12345.0             12345.0             12345.0             12345.0             12345.0             12345.0             12345.0
Wiener process for Thermostat # 2        1 F T T   5.9690975612399577E-01        1863048650.0        1167059563.0        4156553466.0        2659491592.0        2500563110.0        2967422577.0        3692455944.0        1366884236.0        2968912127.0         335948734.0        4161675175.0         475798818.0        3692455944.0        1366884236.0        2968912127.0         335948734.0        4161675175.0         475798818.0
Wiener process for Thermostat # 3        1 F T T  -1.9577134425325560E-01        2029679022.0        1992813296.0        1475024831.0        3744841000.0        4231717232.0        1872789393.0        1015873554.0        1310354410.0        2249465273.0         994084013.0        2912484720.0        3876682925.0        1015873554.0        1310354410.0        2249465273.0         994084013.0        2912484720.0        3876682925.0
Wiener process for Thermostat # 4        1 F T T  -5.5423907268054418E-01         972191078.0        3239779000.0        2283144792.0        4029872124.0        2868550739.0         388907277.0        2338701263.0        1119171942.0        2570676563.0         317077452.0        3194180850.0         618832124.0        2338701263.0        1119171942.0        2570676563.0         317077452.0        3194180850.0         618832124.0
Wiener process for Thermostat # 5        1 F T T  -3.6874052824979625E-01         246061856.0        2033992607.0        4208640487.0        3425480013.0        1713937449.0        3033523858.0        1597262096.0        3906379055.0        3312112953.0        1016013135.0        4099474108.0         275305423.0        1597262096.0        3906379055.0        3312112953.0        1016013135.0        4099474108.0         275305423.0
Wiener process for Thermostat # 6        1 F T T   5.7875332706651861E-01        4268450248.0        1240555256.0        2123119467.0         299173953.0        2368881629.0        2698044585.0          97147054.0        3131372450.0         829345164.0        3691032523.0        3006063034.0        4259826321.0          97147054.0        3131372450.0         829345164.0        3691032523.0        3006063034.0        4259826321.0
Wiener process for Thermostat # 7        1 F T T  -1.8983145396195047E+00        4260312323.0         705196258.0         937296972.0        1373994383.0        3179698350.0        3757299263.0         796079799.0        2105258207.0         955365076.0        2923159030.0        4116632677.0        3067683584.0         796079799.0        2105258207.0         955365076.0        2923159030.0        4116632677.0        3067683584.0
Wiener process for Thermostat # 8        1 F T T  -3.3116685260855833E-01        2351531572.0        3477839446.0        1021048571.0        1975906828.0        1893564842.0         777663015.0        3281794178.0        2616230133.0        1457051261.0        2762791137.0        2480527362.0        2282316169.0        3281794178.0        2616230133.0        1457051261.0        2762791137.0        2480527362.0        2282316169.0
Wiener process for Thermostat # 9        1 F T T   1.4386427466100791E+00        3265425123.0        2999969280.0        3048908474.0        1047403656.0         134736569.0        4209884843.0        3777646647.0        1837464056.0        4204654757.0         664239048.0        4190510072.0        2959195122.0        3777646647.0        1837464056.0        4204654757.0         664239048.0        4190510072.0        2959195122.0
Wiener process for Thermostat # 10       1 F T T  -2.3947144259907721E-01        2825100143.0        2025717467.0        3827127036.0        1422979577.0        1026966836.0        1481957392.0        4215590817.0        3862461878.0        1087200967.0        1544910132.0         936383720.0        1611370123.0        4215590817.0        3862461878.0        1087200967.0        1544910132.0         936383720.0        1611370123.0
Wiener process for Thermostat # 11       1 F T T   2.8146058156813852E-01        3161233422.0        2404453347.0        1673723662.0         906337025.0          73303549.0        1016746719.0        1683636369.0         362165168.0         814316280.0         869382050.0         980203903.0        2062101717.0        1683636369.0         362165168.0         814316280.0         869382050.0         980203903.0        2062101717.0
Wiener process for Thermostat # 12       1 F T T  -6.6211933450441895E-01         208754144.0        1983222026.0        1378772639.0         460703296.0         651350573.0        3898252829.0         272317999.0         166758548.0         310112982.0         201045826.0        1680231254.0         118290799.0         272317999.0         166758548.0         310112982.0         201045826.0        1680231254.0         118290799.0
Wiener process for Thermostat # 13       1 F T T   2.2418582236869027E-02         545702192.0         878923556.0         464381839.0        1267067492.0        3004786620.0        2258194530.0        2245755202.0        1652682525.0        2865544364.0         721509566.0         209733568.0         592362218.0        2245755202.0        1652682525.0        2865544364.0         721509566.0         209733568.0         592362218.0