 # Version information for this restart file 
 # current date 2022-11-29 19:29:05.704
 # current working dir /scratch/work/courses/CHEM-GA-2671-2022fa/cl6661/comp-lab-class/Week12/Runs/Proton
 # Program compiled at                              Sat Dec 12 18:27:15 EST 2020
 # Program compiled on                                         cs001.nyu.cluster
 # Program compiled for                                                nyu-intel
 # Source code revision number                                       git:8c64c6e
 &GLOBAL
   PRINT_LEVEL  LOW
   PROJECT_NAME proton_aimd_1ps_every0.5fs
   RUN_TYPE  MD
   WALLTIME 21600
 &END GLOBAL
 &MOTION
   &GEO_OPT
     OPTIMIZER  BFGS
     MAX_ITER  100
     MAX_DR     3.0000000000000001E-03
     &BFGS
     &END BFGS
   &END GEO_OPT
   &MD
     ENSEMBLE  NVT
     STEPS  2000
     TIMESTEP     4.9999999999999994E-01
     STEP_START_VAL  1997
     TIME_START_VAL     9.9849999999998249E+02
     ECONS_START_VAL    -1.1027618510476257E+03
     TEMPERATURE     3.0000000000000000E+02
     &THERMOSTAT
       TYPE  GLE
       REGION  MASSIVE
       &GLE
         NDIM  5
         A_SCALE     1.0000000000000000E+00
         A_LIST     1.8595758612559999E+02    2.7263853498399998E-01    1.1526100454610001E+01   -3.6414578262600003E+01 \
             2.3173375816020001E+02
         A_LIST    -2.7809524712060002E-01    8.5951591808710006E-05    7.2189048017650004E-01   -1.9844539343859999E-01 \
             4.2409257583420001E-01
         A_LIST    -1.4825808131210000E+01   -7.2189048017650004E-01    1.3590902121280000E+00    5.1498896280349999E+00 \
            -9.9949268450990001E+00
         A_LIST    -1.0372189126880000E+01    1.9844539343859999E-01   -5.1498896280349999E+00    2.6661910891169999E+01 \
             1.1507715495310000E+01
         A_LIST     2.1801346360420001E+02   -4.2409257583420001E-01    9.9949268450990001E+00   -1.1507715495310000E+01 \
             3.0958394565589998E+02
         &THERMOSTAT_ENERGY
               1.2927838870223127E-04
              -7.6892101847769024E-05
              -5.4391420390592924E-03
              -3.1195566527300977E-03
              -1.8034118747885592E-02
               1.3801904407538478E-03
              -6.7628477505058664E-03
              -1.3346954774631121E-03
               9.4616818491987022E-03
               4.0319981058847638E-03
               8.4603553838426271E-03
              -9.0566305027767299E-04
              -6.9898194435220025E-03
              -7.3268225931392861E-03
               2.1170585315087556E-03
              -1.2242083233991119E-02
               7.8056106986332096E-03
               1.1411482533966075E-03
               4.3351811562732248E-03
              -1.8420471371410332E-03
              -2.0473334432349788E-03
               1.6195018383049976E-02
              -1.5807537662582881E-02
              -7.9916889351917871E-03
               3.3326492254137545E-03
              -2.0107742603204084E-03
               1.1677066649319894E-03
               1.0996356290661627E-03
              -1.8650339121295662E-03
               3.7254364358637162E-03
              -2.5856580666604192E-03
              -7.6792344459499420E-03
               1.3753647028699103E-02
              -4.3545220278208858E-03
               2.8464258082444354E-03
               1.3704141886460488E-02
               4.2637533316160943E-03
              -6.8700212763229615E-03
              -3.3568185439872798E-03
               5.9734168506441242E-03
               5.7809421539222056E-03
              -9.4262790618493530E-03
               6.1617357704516163E-03
               2.4016244018481739E-03
               6.0883614313894758E-03
               8.2778630415684153E-03
              -5.3233004341159138E-03
              -7.1902399257597926E-04
               1.0412104346726569E-03
              -1.7252023917712479E-03
              -2.6904597345688078E-03
               6.1039731943536473E-03
              -9.0489659872871765E-03
              -6.4574200758566874E-03
              -5.4996490514918894E-03
               6.0583107755459407E-03
               1.4668753779389842E-03
              -8.5880595191510298E-03
               3.1301905572822444E-03
               1.0332588437061432E-02
              -1.0415806126715986E-03
              -6.2177727968282179E-03
               2.2472321035686499E-02
              -2.3574689008607889E-03
               7.2977360213265004E-03
               8.1744042430250789E-03
              -4.6752844370268904E-03
               7.9122015350916522E-03
               1.5620077700680414E-02
              -2.6364394867474106E-03
              -9.6933635233195266E-03
              -4.6232136307536361E-03
              -6.9769513619985062E-03
               1.1059793713113638E-03
              -3.0775070458572249E-03
              -1.1845242256848510E-02
               6.4952213749512435E-03
               4.1167796278653102E-03
               1.5305553461823101E-05
              -4.0045705152924882E-03
               8.7257718796790087E-03
              -3.9162995431656069E-03
               3.2182668739185018E-03
              -6.5233796389474030E-04
              -4.4442967804970306E-04
               1.1473905762682491E-02
              -4.0427377676122474E-03
              -9.3336272734987171E-04
               6.3744644938121420E-03
              -8.9272068331399997E-03
              -4.5001127639496318E-04
              -4.9462725943023424E-03
               5.5214659039546895E-03
              -5.5802816134620558E-03
              -2.4846601897019513E-03
               4.2286154213151631E-03
               5.8623233055941758E-03
              -3.2260870173186185E-04
               1.0758842040142590E-02
               9.2147721123258608E-04
              -7.6891408327770154E-03
              -4.6804823618631312E-03
               2.8230534130154533E-03
              -8.1488455606938577E-03
              -2.5745970996573007E-03
               4.9616717403813040E-03
               7.5672916575933846E-03
              -9.1950613711112112E-04
               8.5481649752850580E-03
              -9.3212697431336033E-03
              -3.8146198730709484E-04
               4.3512882388290859E-03
               7.6702155753644048E-03
               4.4900405753436666E-03
              -3.2779349622541363E-03
              -4.0524770789082711E-03
              -6.1928762513675257E-03
               5.5794348596301139E-03
               3.7988330307889154E-03
               1.7004616434462957E-03
              -3.0322870099300132E-03
               1.2964416072825786E-03
               6.0377926556787493E-03
              -2.7067413676602385E-03
              -6.8764796110338481E-03
              -5.3817988470444434E-03
               7.7484616674859917E-03
              -2.6118164392568738E-04
              -1.4770894110147886E-03
               2.7811830573788473E-03
              -8.9412565046709952E-04
               8.0526208041002308E-03
               2.9915826003672741E-03
              -1.3660012864937360E-03
              -5.8724284159357249E-03
               2.1566028445031402E-03
              -5.5438636138810515E-03
              -1.8139893005946226E-03
              -6.3651360287958203E-03
               1.7472172199023298E-03
              -1.0230438192082079E-02
               9.5482510048539842E-03
               1.5769550193061525E-02
              -2.5116986862251077E-02
               4.9478995896692331E-03
              -4.9158267093821120E-03
               4.2377373034106353E-03
               1.9034895646215188E-03
              -8.2708229989212961E-04
              -1.0353313901464625E-03
              -1.6989796074857049E-02
               5.9197885091697867E-03
               1.9501876249947551E-03
               7.2034875144727463E-04
               1.9518590947860408E-03
               3.1066375724106503E-03
              -5.0705728052211161E-03
              -1.0737072539331689E-03
               2.8280845788392192E-04
               1.5483078018562497E-03
              -5.3080994796522027E-03
               1.4193750784177019E-03
              -4.1436960373619526E-03
               2.6426637521216722E-03
               8.0832899523521889E-03
               2.6280567891487042E-02
               9.4154866726766501E-04
              -2.1018574973331108E-02
               6.4892565266952279E-03
              -3.8078329440585090E-03
              -3.9727403336131117E-03
               1.1249491369842994E-05
               8.2809229627498638E-03
              -2.0782195329501351E-03
               4.0231818648979623E-02
               1.2605364724967370E-02
              -5.5022572850154019E-03
              -5.5226062529921465E-03
               1.3158939803449196E-02
               4.5631965468560945E-03
              -2.4181660593860367E-03
              -1.1617041277853884E-02
               3.5803854439817207E-02
              -8.6085468849409347E-03
              -3.0453664708451644E-03
              -2.4053812660461637E-03
               1.6721791841135394E-02
              -1.3460929649231432E-03
              -2.4475163275696561E-03
               1.7813245707783273E-03
              -6.9054794750273265E-03
              -6.5299968834477866E-04
              -3.5847555913698023E-04
               1.8588420694972605E-03
               5.1033979574543484E-03
               1.2435704104918649E-02
              -4.4342143989160848E-03
              -6.5396734891194179E-03
              -7.2307916810416852E-03
              -6.6072925179075231E-03
               8.6275645568637902E-03
               7.7029688870928403E-03
               2.3074572358972507E-03
               3.1244182866424692E-03
              -1.1920886491225101E-02
              -8.2624670848634365E-03
               9.6196940883623901E-03
               4.1828929305373838E-03
              -7.7411996081892080E-03
              -3.1631616315828852E-03
              -4.1151730144524720E-03
               9.4271953215616685E-04
               2.3724895318812155E-03
               8.4183266937657968E-03
              -5.8753625707078268E-03
               8.3214885029037414E-03
              -1.7921508082025511E-02
               1.4494959902969017E-02
              -2.8287641034675150E-03
               7.7525722821294310E-03
              -1.6618610603786916E-03
              -8.6083734331220433E-05
              -1.0845469522220387E-02
               6.3509505736719912E-03
               1.1223464740952477E-02
              -5.8848046946766821E-03
              -9.5798055501962985E-03
               4.3692441605709849E-03
               4.2859592471516323E-03
              -9.6737296074841001E-05
              -3.8929553656852044E-03
              -5.4689081469233031E-03
               6.7485692516622009E-03
               1.7566931504951078E-03
              -2.4312099576565822E-03
              -5.1541682987735777E-03
              -9.4398026841925487E-03
               2.7519822364256339E-03
              -1.1112153371866734E-03
              -2.2311768857611195E-03
               5.6488881216602144E-03
               4.0793602436723034E-03
               7.6085012565141729E-03
              -1.7939105875164961E-03
              -1.6580830161156449E-03
               5.5718787248107181E-03
              -1.6265089743989155E-03
               1.5771610300011089E-03
              -5.4804797235785616E-03
              -5.1932345458749942E-03
               1.3622285440002440E-02
              -6.2113833236329460E-03
              -7.9346083669266879E-03
              -7.8586436722559369E-03
               9.0578367396221861E-03
              -4.0478372275815737E-03
              -2.9995182438698354E-03
               8.7750258390085784E-03
              -6.9607214615644963E-03
              -5.0862465026372964E-03
               7.6009361963511263E-03
               8.7467950908815574E-03
              -4.4712119131861397E-03
               3.7618147137610087E-04
              -3.0341399194255374E-03
              -6.4770120959088649E-03
              -2.1515092179487300E-03
               4.5079006754768051E-03
              -4.0120602072371003E-03
               6.0550348458771990E-03
               5.7241540844660483E-03
              -7.0370625922941011E-03
               8.7546598956423000E-04
               7.7723372296168297E-03
               3.8638532541045720E-03
              -5.3324102381031163E-03
              -1.3390080304115801E-02
               9.5388616627372219E-03
              -5.5797279926627177E-04
              -5.7541248696862468E-03
               1.6070221775964979E-03
              -5.2298015390176951E-03
               4.7281591533951100E-03
               1.6001523664764407E-02
              -2.2662896074190195E-03
              -2.3694783995857312E-03
               3.3006214355986319E-03
               1.2265331081147601E-03
              -1.0438852629662534E-03
              -1.4697273329655840E-03
               8.2360999141604229E-03
              -8.8819145688225564E-04
              -5.9971940442127003E-03
              -2.3798094060242473E-03
               1.1695996863875293E-02
               2.0658137363313393E-03
              -1.3914006632634224E-02
               2.1242393960010552E-02
               4.4530957945045583E-03
              -1.2145643581033807E-02
               2.1656989328566892E-03
              -2.3701759947120566E-03
               9.1792417645394280E-04
               1.2213929341101527E-02
               5.4340008839168729E-04
              -1.4384128857950271E-02
               3.3908657617592397E-04
               7.8280636715623547E-04
               1.4464521489634582E-02
               1.4785688286959343E-02
              -8.3419519017651552E-06
              -4.8473503119225974E-03
              -4.7214400014285217E-03
               1.7340485848678210E-03
               4.4969167553820795E-04
              -7.2264590938678217E-03
              -1.1644391946514843E-02
               8.8545070993951754E-03
              -1.4256721893533371E-02
              -2.8876928693091324E-03
               5.3744553336455775E-03
               1.2064218402190461E-03
              -2.5779607888498997E-03
               5.8525961525584640E-03
              -5.6821843681051773E-03
               1.4411202660831273E-02
               1.0025092172843602E-02
               2.5963054518136266E-03
               2.3464266686587880E-03
               7.3811868339418519E-03
              -1.2739356652266354E-02
               6.6381877944468818E-03
               7.4923128398820295E-03
               1.4163687541099115E-03
               3.5621567089268614E-05
              -5.2412758418558230E-03
               3.8350550656955627E-03
               3.0942036864689197E-03
               8.5281374283897749E-03
              -2.0140819183975386E-03
              -5.3090539486965876E-03
              -6.2396851517106710E-03
               1.2070441560568931E-02
              -2.2410678083764381E-03
               1.9620115123420642E-03
               1.1217037284840439E-03
               5.8972891819344259E-03
              -1.0909975996455131E-02
               1.1246086729037626E-02
               2.1917962306255605E-03
              -4.8291813964282853E-03
               7.0203809909207097E-03
              -7.9347529406414187E-03
               4.6199410291551807E-03
              -1.1294156110484093E-03
              -4.3841857896560121E-03
               6.0277653136694984E-03
              -8.0129487919953311E-03
              -1.6118148783648020E-02
               1.0300144053015870E-02
               6.3390399757956521E-03
              -6.9216462107155458E-03
               2.0966288361783311E-02
              -2.4628609458361220E-03
              -6.2993842202462092E-03
               4.5424466320435480E-03
               1.8496301028639250E-02
              -7.5946542528440852E-03
              -9.8098473981611325E-03
              -9.2961266733754822E-03
              -2.8290001209370901E-03
               6.0331398968359543E-03
               1.5069005575853991E-04
              -2.1792013663736714E-03
               5.6732385253103843E-03
               7.4817087934803865E-03
              -1.3619532019336206E-02
              -2.0317233874350284E-02
               3.9552963103384707E-03
               1.0192453471204937E-02
               7.3999359526457989E-03
               7.5734808875073580E-03
              -3.5781720721990186E-03
              -3.6760552466718649E-03
              -1.0468265661938449E-02
              -4.3632015924806649E-03
               1.4682998687339808E-02
              -4.0727882087588166E-03
               1.2000497788078289E-02
              -5.5148558792564772E-04
              -8.0616564443640581E-03
               7.5108360555328118E-03
               4.1036909033300719E-04
              -8.6204333098338689E-03
               1.1867945130739840E-02
              -4.7927075709483964E-03
               3.1917681448220192E-03
              -1.0313905526352286E-02
              -2.1941033912190222E-03
              -1.5016546083147855E-03
              -1.9833864692814472E-03
               3.8651278205348418E-03
               9.1334252350245735E-04
              -1.0326085281132808E-02
               5.2104940251434641E-03
              -1.3575266507016901E-02
              -2.6830508231775810E-03
               5.6086905492292467E-03
               1.2908074253847057E-03
               2.7787323895788062E-03
               2.9159506877014660E-04
              -5.0027566781570849E-03
              -3.7323795000593599E-03
               2.9314488516828923E-03
               8.5208421151789816E-03
               1.5217824597410575E-03
               3.0836190353987956E-03
              -4.5604126930385658E-04
              -3.0070868423854702E-04
              -2.9114541370451638E-03
              -8.4944135592852855E-05
               6.4565282075434837E-03
              -1.0422659247622365E-03
              -9.1876428705898426E-03
               1.4761300140558330E-02
              -3.5295673959376572E-03
              -5.4127833694867173E-03
              -3.7624855384808848E-03
               1.3020224944062665E-03
               2.5786832633960810E-03
              -6.3275451685735327E-04
              -7.6339656851344504E-03
              -1.2883501471717962E-02
               1.2190100173352118E-02
               1.3290043147937566E-02
               3.7284916122674728E-03
              -1.1289681713474284E-02
               7.9533109901013671E-04
               3.1561463386509643E-03
              -4.9355095280675747E-04
               7.6089531417630127E-03
              -2.6353271414041425E-04
              -1.8270906781798837E-02
               2.4094544892588662E-02
               4.4290863706067732E-03
               9.5883319959196994E-03
               1.1311646041685997E-03
               1.5360439846177026E-02
               7.0769801514664298E-03
              -8.7905073087800687E-03
              -7.3808183919274687E-03
              -1.1014219625296945E-02
               9.6225511812161220E-03
               1.6489459568197050E-03
               4.7425772413810631E-03
              -2.7393101790989510E-03
              -1.1975124984038981E-02
              -1.6211220049648773E-02
               5.6872050686443080E-03
              -9.4832004913920510E-03
               1.0580613296761063E-02
               8.7712527696712176E-03
              -3.7285778462024686E-03
               6.1925455348670264E-03
               5.7570742602295272E-03
               1.5353567360099365E-03
              -1.3304440032224625E-02
               3.2002703196521067E-03
               8.0786936309430752E-03
              -1.0418884035336085E-02
               1.3294967065193778E-05
               5.3174238945873846E-05
               4.2576877947575267E-03
              -3.8802621705680165E-04
              -3.4978638373894385E-03
               1.0824696592330039E-02
              -8.9695532159572971E-04
               2.6077375188926313E-03
              -5.2954482903153390E-03
              -4.8397543201928340E-03
              -2.3397807025064420E-03
              -3.8124800059557472E-03
               6.3697784948815728E-03
               2.2628075741344274E-03
              -3.2482349807698165E-03
              -1.9715033843875325E-03
              -3.7462238139012215E-03
               3.1769843860651095E-03
               7.9810620338262011E-03
               4.5996872292502334E-04
               7.7382138611139977E-03
              -2.3614830738395752E-03
               8.3951860830889513E-03
              -4.2058387630046924E-03
              -2.5983732872167083E-04
               6.0137134478949038E-03
               2.4616055653986376E-03
               4.0459763736814241E-03
               3.8506508736451035E-04
               6.3440428460037005E-03
               1.3452595035783094E-03
               1.4921430132127029E-03
              -1.4147402643097506E-02
               1.4038881652172966E-02
               7.9793639986685833E-03
              -1.6145987949572477E-02
              -1.0558888188578556E-02
               1.5105679805712708E-04
               7.4710023353860055E-03
               4.2557500101302282E-03
              -7.9354569712752898E-03
               4.3195829014723930E-03
               1.7755074645716402E-04
              -1.0332190329025191E-02
               9.7450678373408022E-03
              -2.0457252430853903E-02
              -2.5078656552295141E-03
               1.0326485678582263E-03
               7.6994776022181969E-03
               3.7878127884240619E-03
              -2.2266964710360351E-02
               7.9933891263683221E-03
               4.8450653340061760E-03
               2.1493459649694277E-03
               4.1768483108024432E-03
               5.5697940381694185E-03
              -6.4745208592713139E-03
              -3.6791382738987990E-04
               1.3056656882293682E-02
              -5.4428060166467115E-03
               4.7745991164731046E-03
              -2.5038009196626195E-03
              -7.1305821179564856E-03
              -8.3908349511355503E-03
              -3.7123703075145478E-04
               1.4040205795763975E-03
               1.4644510125493247E-03
              -4.0545662796411875E-04
              -5.0406478261356951E-03
               3.5576450178410376E-03
               4.2665854422820381E-03
               9.0395266232930660E-04
              -1.7737010466746662E-03
              -1.3147557378362772E-03
               1.0123305229090742E-03
              -1.0138316740762126E-03
               1.1463725060282253E-03
              -1.2054314907842428E-03
               6.9448116011811105E-03
               5.1636327745104840E-03
              -1.9807612925434873E-02
               1.6366778666762093E-03
              -1.9504852915136542E-03
              -2.9200190868327726E-03
              -6.6794529379666232E-04
              -2.1011058983913689E-03
              -2.7644807436964566E-03
              -1.8784514634137327E-03
               1.0558403605840486E-02
              -4.7778379662861171E-03
               2.6764140843879838E-03
               4.6797931759678260E-03
               1.1182294650110675E-04
              -9.5261175076632261E-04
              -3.2480479876622215E-03
               4.3021830965629974E-03
              -8.0215139950931709E-04
              -5.3614575997115964E-03
               1.9451788320307693E-03
              -1.4792733136540649E-03
              -1.0455826934162847E-02
               3.1942574862992576E-03
              -5.3588982471634459E-03
              -3.3940314445458238E-03
               4.7240398922534753E-03
               1.2629523091131049E-02
               1.5431772633013185E-02
               2.7513511372826110E-03
              -6.4436060538860451E-03
         &END THERMOSTAT_ENERGY
         &RNG_INIT
Wiener process for Thermostat # 1        1 F T T   3.7280401166127353E-01        2396824340.0        1285798124.0        1970812289.0        4262378425.0        2500496477.0        3105761546.0             12345.0             12345.0             12345.0             12345.0             12345.0             12345.0             12345.0             12345.0             12345.0             12345.0             12345.0             12345.0
Wiener process for Thermostat # 2        1 F T T  -2.8031459711754392E-01        1517340215.0         764337745.0        1777988352.0        1272471177.0        3093987526.0        2495380513.0        3692455944.0        1366884236.0        2968912127.0         335948734.0        4161675175.0         475798818.0        3692455944.0        1366884236.0        2968912127.0         335948734.0        4161675175.0         475798818.0
Wiener process for Thermostat # 3        1 F T T   7.0414863813957229E-01        1874984675.0        3540139467.0        3102430019.0        1608426380.0         643336117.0        1230365417.0        1015873554.0        1310354410.0        2249465273.0         994084013.0        2912484720.0        3876682925.0        1015873554.0        1310354410.0        2249465273.0         994084013.0        2912484720.0        3876682925.0
Wiener process for Thermostat # 4        1 F T T   2.2606224243119818E-01        3416187057.0        1637601412.0         393440280.0        2948182120.0        3407482107.0        2343296956.0        2338701263.0        1119171942.0        2570676563.0         317077452.0        3194180850.0         618832124.0        2338701263.0        1119171942.0        2570676563.0         317077452.0        3194180850.0         618832124.0
Wiener process for Thermostat # 5        1 F T T  -1.0267294306732384E+00         315072143.0        4137263975.0        4196656129.0        1282237791.0        3639735469.0        1937530485.0        1597262096.0        3906379055.0        3312112953.0        1016013135.0        4099474108.0         275305423.0        1597262096.0        3906379055.0        3312112953.0        1016013135.0        4099474108.0         275305423.0
Wiener process for Thermostat # 6        1 F T T   9.2624835653208748E-01        3222219212.0        3105331301.0        2094058484.0        2511776071.0        3719186732.0        3505559269.0          97147054.0        3131372450.0         829345164.0        3691032523.0        3006063034.0        4259826321.0          97147054.0        3131372450.0         829345164.0        3691032523.0        3006063034.0        4259826321.0
Wiener process for Thermostat # 7        1 F T T  -4.6721006089689310E-01        2921304001.0        3534845789.0         764942181.0        2980414860.0        2807768180.0         274774080.0         796079799.0        2105258207.0         955365076.0        2923159030.0        4116632677.0        3067683584.0         796079799.0        2105258207.0         955365076.0        2923159030.0        4116632677.0        3067683584.0
Wiener process for Thermostat # 8        1 F T T   4.8809173354813140E-01        3327178806.0        3682317356.0        2663069382.0         319044460.0        3975670735.0         562702070.0        3281794178.0        2616230133.0        1457051261.0        2762791137.0        2480527362.0        2282316169.0        3281794178.0        2616230133.0        1457051261.0        2762791137.0        2480527362.0        2282316169.0
Wiener process for Thermostat # 9        1 F T T  -8.1805399140306756E-01         433221438.0         349071730.0        2033385903.0        2639944804.0        3988392127.0        3801627598.0        3777646647.0        1837464056.0        4204654757.0         664239048.0        4190510072.0        2959195122.0        3777646647.0        1837464056.0        4204654757.0         664239048.0        4190510072.0        2959195122.0
Wiener process for Thermostat # 10       1 F T T  -2.7062828385550008E-01        2290601073.0        1666814614.0        3289919364.0        2930088785.0        1500929831.0        1860303943.0        4215590817.0        3862461878.0        1087200967.0        1544910132.0         936383720.0        1611370123.0        4215590817.0        3862461878.0        1087200967.0        1544910132.0         936383720.0        1611370123.0
Wiener process for Thermostat # 11       1 F T T   6.8652417552969780E-01        2151060734.0         580174056.0        1748210725.0         399674445.0        1879492130.0        2741776977.0        1683636369.0         362165168.0         814316280.0         869382050.0         980203903.0        2062101717.0        1683636369.0         362165168.0         814316280.0         869382050.0         980203903.0        2062101717.0
Wiener process for Thermostat # 12       1 F T T   1.2985463821691814E+00        3478492904.0        1830493925.0          17364685.0        2058676739.0        2676153401.0        4087350495.0         272317999.0         166758548.0         310112982.0         201045826.0        1680231254.0         118290799.0         272317999.0         166758548.0         310112982.0         201045826.0        1680231254.0         118290799.0
Wiener process for Thermostat # 13       1 F T T   2.0061703114922356E+00        2097018817.0        1300727704.0         367347443.0         582130443.0        2824054692.0        3111690587.0        2245755202.0        1652682525.0        2865544364.0         721509566.0         209733568.0         592362218.0        2245755202.0        1652682525.0        2865544364.0         721509566.0         209733568.0         592362218.0