 # Version information for this restart file 
 # current date 2022-11-29 17:30:56.827
 # current working dir /scratch/work/courses/CHEM-GA-2671-2022fa/cl6661/comp-lab-class/Week12/Runs/Proton
 # Program compiled at                              Sat Dec 12 18:27:15 EST 2020
 # Program compiled on                                         cs001.nyu.cluster
 # Program compiled for                                                nyu-intel
 # Source code revision number                                       git:8c64c6e
 &GLOBAL
   PRINT_LEVEL  LOW
   PROJECT_NAME proton_aimd_1ps_every0.5fs
   RUN_TYPE  MD
   WALLTIME 21600
 &END GLOBAL
 &MOTION
   &GEO_OPT
     OPTIMIZER  BFGS
     MAX_ITER  100
     MAX_DR     3.0000000000000001E-03
     &BFGS
     &END BFGS
   &END GEO_OPT
   &MD
     ENSEMBLE  NVT
     STEPS  2000
     TIMESTEP     4.9999999999999994E-01
     STEP_START_VAL  1000
     TIME_START_VAL     4.9999999999999636E+02
     ECONS_START_VAL    -1.1027618510476257E+03
     TEMPERATURE     3.0000000000000000E+02
     &THERMOSTAT
       TYPE  GLE
       REGION  MASSIVE
       &GLE
         NDIM  5
         A_SCALE     1.0000000000000000E+00
         A_LIST     1.8595758612559999E+02    2.7263853498399998E-01    1.1526100454610001E+01   -3.6414578262600003E+01 \
             2.3173375816020001E+02
         A_LIST    -2.7809524712060002E-01    8.5951591808710006E-05    7.2189048017650004E-01   -1.9844539343859999E-01 \
             4.2409257583420001E-01
         A_LIST    -1.4825808131210000E+01   -7.2189048017650004E-01    1.3590902121280000E+00    5.1498896280349999E+00 \
            -9.9949268450990001E+00
         A_LIST    -1.0372189126880000E+01    1.9844539343859999E-01   -5.1498896280349999E+00    2.6661910891169999E+01 \
             1.1507715495310000E+01
         A_LIST     2.1801346360420001E+02   -4.2409257583420001E-01    9.9949268450990001E+00   -1.1507715495310000E+01 \
             3.0958394565589998E+02
         &THERMOSTAT_ENERGY
               1.2600775184620926E-03
              -1.0438685488803436E-03
              -2.7511314428271178E-03
               1.0474825650866272E-03
              -1.0247765212063137E-02
               1.2139741660199307E-03
              -2.6647182079857557E-03
              -2.0954603890473988E-03
               6.9496212469315078E-03
               4.3434840198778154E-03
               7.9029158026718491E-03
              -3.0507187961790116E-03
              -4.4846034529206647E-03
              -4.9501489575447645E-03
               3.6774940817917504E-03
              -6.6041545975758847E-03
               2.7201539352386134E-03
              -2.3184049071081026E-03
               5.0309698173880806E-03
              -1.5466321644742474E-03
               5.3033531960355595E-03
               4.8167289610973296E-04
              -4.9064955312626800E-03
               3.8652674936557393E-04
              -4.1257849931596469E-03
              -7.8663648037951839E-03
               2.6845655355051956E-03
               3.1854506606497530E-03
               8.5685180219273829E-04
               1.6729228405673625E-03
              -6.6918372586654996E-03
              -2.1915222724379888E-03
               1.0903762452281279E-02
               5.6729231408850578E-03
              -1.0471899365787284E-02
               9.3230303255565205E-03
              -2.7068637989014579E-03
               1.5108622894296994E-03
               1.4795906024922430E-03
              -5.8364944219044240E-03
               5.2917324419760603E-03
               9.1523741694139510E-04
               5.9751059483586473E-03
               1.5523086238158545E-03
              -1.1742417735290378E-03
               3.6665099877286160E-03
              -4.9960738228857111E-03
               2.4914869486542088E-04
               1.2583124385227428E-03
              -6.1421631291804814E-03
               2.6497435869265108E-03
              -3.6429482656000645E-03
              -6.8526439963227798E-03
               1.1387008781662889E-03
              -4.5129974755270599E-03
               4.3562616560419249E-03
               4.6597791903015707E-03
              -5.2010934840648936E-04
               1.8164059602230262E-03
               6.5413843545231469E-03
              -1.9911433693183965E-05
               4.4867032341487116E-05
               1.2584769393769065E-02
               3.5505144955341864E-03
              -8.0056277098119804E-04
               5.2206874484037836E-03
               8.5212824798660712E-04
               2.3488834779414394E-03
               8.8359919420430092E-03
              -8.6095715052286704E-05
               3.4758844829637344E-03
              -8.2169481387455966E-03
              -2.8248823614504905E-03
              -2.3291974862446980E-03
              -2.4511944245641038E-03
              -9.9847679634253277E-03
               6.3512682489492269E-03
               5.0905845785877363E-04
               2.9653871186495718E-03
              -3.6501166337782383E-03
               2.6161390666974461E-03
              -1.5583750783859742E-03
               6.9313018453048825E-04
              -7.1461886972174987E-05
               2.8113991673667849E-03
               5.0046841027615394E-03
              -6.0394995232304870E-03
               4.8155802047653408E-03
               8.5756723014441105E-03
              -9.3946031304729029E-03
               2.9800568882168204E-03
              -4.6739269283302748E-03
               3.7169527283520357E-03
              -2.0512915424212657E-03
              -1.1543770999650446E-02
               6.8606939809789354E-03
               7.9502489575466601E-03
               7.2159029859230662E-04
               9.3352880317705625E-03
               2.5757832394335042E-03
              -2.4042583393604350E-03
              -6.1970268933734139E-03
               9.8029726338564618E-04
              -6.5423942489010924E-03
               2.2164801807861252E-04
              -3.0816891370283594E-03
               7.9118216242694862E-03
               5.0207808263902040E-04
               5.3007008593657619E-03
              -5.6038454654856471E-03
               1.1204415310570922E-03
              -4.3309596792774803E-03
               5.8743033945924767E-03
               7.0202074965231747E-03
               3.7306844500129511E-03
              -3.3048576608067491E-04
              -1.1000101199291071E-02
               2.1737967941451472E-03
               6.0838904643955064E-04
               1.6536956785327204E-03
              -5.1114053554135782E-03
               1.8633503216409285E-03
               3.0461008535912627E-03
              -1.1402945966286658E-03
              -4.4093467911881356E-03
              -4.0755422201497636E-03
               4.7291051224221010E-03
              -2.2132097975551810E-03
               1.9445412714871276E-03
              -8.9657893049067908E-03
              -5.1189040951120108E-03
               9.8494672221036451E-03
               2.4448882246455896E-03
               3.6704360595699245E-03
              -3.4079454751670380E-03
               2.0532404567813892E-03
              -1.3864809539195146E-03
              -1.7757338746000374E-03
              -1.1858969261142329E-03
              -1.1265429018886801E-02
               3.3164227513942223E-03
               6.7470357874317294E-03
               9.0300267728970172E-03
              -1.1883451716329948E-02
              -1.1371342787249599E-03
               2.9805207075051590E-03
               8.6563444247909679E-03
               1.6661912369899646E-03
               4.9989927975461665E-04
              -1.5995922718676809E-03
              -6.7958987898803407E-03
               6.9285915449362311E-03
               2.7298005399269820E-04
              -3.3144200387532231E-04
              -1.0764116989872914E-03
               2.0383621873530265E-03
               2.0860972895973100E-03
              -4.1483041254040546E-03
              -2.4320340417845410E-04
               8.0326387287560207E-03
               9.1225651147214986E-04
              -2.6969919494150433E-03
              -1.5634800415436627E-03
               5.6573250460529429E-04
               5.1392685693246506E-03
               1.0137490952097402E-02
               8.2161092797975056E-03
              -9.3465630791886006E-03
              -3.3647344063046951E-03
               9.2394772722944642E-06
              -5.1043575537931807E-04
              -1.4724598828008450E-03
               6.0111615036304699E-03
               1.4784243676483526E-04
               4.3800467337199479E-02
               1.1907926862666935E-02
              -4.2317587708022219E-03
              -2.2658344943992923E-03
               1.2667606061677154E-02
               3.3648608096239481E-03
               1.7439470422623432E-04
              -2.5482278604087080E-03
               1.9150698337010663E-02
              -6.9517043010627966E-03
               5.6491252607327727E-04
              -1.3950833017037354E-04
               6.1708224671022348E-03
              -3.1035890899238946E-03
               2.5884340019413027E-03
              -2.6742545738400701E-03
              -1.2616555371269464E-03
               3.6188393761427211E-03
              -8.4212351902432261E-04
              -1.6949672630971542E-03
               2.1175014160045138E-03
               7.8393924402171411E-03
              -6.4582637241083077E-03
              -4.0118961334391530E-03
               3.6732264503715134E-03
              -3.4310920059671380E-03
               1.2642573256981256E-03
               3.9760270242991695E-03
              -2.2204501433745901E-04
               5.6585726503755431E-03
               1.2706851750709845E-03
              -6.5876669066064885E-03
              -1.7444417208808437E-03
               7.8908380306318519E-03
              -6.5374810224061693E-03
               6.4598554956187652E-03
              -6.0632188186847073E-03
               2.1687075061047742E-03
               6.4995588126196295E-03
               3.3084077747894025E-03
              -9.6785124402075581E-03
               5.6741797812412604E-04
              -2.8599731598281035E-03
               5.8642640627433592E-03
               8.2009815733943359E-04
               6.2457290815605016E-03
               3.2797158466525738E-04
              -6.0360604670014616E-04
              -8.3167414598904026E-03
               2.9511847944592683E-03
               1.1250678295438869E-03
              -6.0562305537897724E-04
               2.0781480283139160E-03
               2.3289679456210475E-03
               8.9733175953867113E-04
              -3.1162204122649273E-03
              -3.6285614937122432E-03
              -8.8891749463631219E-04
               8.8837445548653037E-03
              -8.0449612996480631E-04
              -3.4842691166921580E-03
               4.9308082896521430E-04
              -8.1788607107573970E-03
               3.0010810755004358E-03
              -3.1375715049181607E-03
              -9.4055278108333364E-04
               2.2418065056055963E-03
               1.0539037849451030E-03
               1.1574264022458708E-03
               3.7082606939519073E-03
              -1.5961787972526033E-03
              -9.1900565340578908E-04
              -3.2841806619581197E-03
               2.5898293992156389E-03
              -2.4727933547010719E-03
              -3.6769207193253472E-04
               4.2257924389472309E-03
               9.4869735732759533E-04
              -4.9131775252616748E-03
              -3.6392254331352606E-03
               4.0644345372012995E-03
              -2.4236075252878509E-03
              -2.2416968463521598E-03
              -2.3245912288321203E-04
              -4.8151594583714374E-03
               3.4510857395894813E-04
               6.7221296059101418E-03
               4.1040688488201485E-03
               6.9179163494734776E-03
               7.9511099863200946E-04
              -1.1444199445081564E-03
               7.3946238124547516E-04
              -2.8118089007237563E-04
               5.2334664418996228E-03
              -5.3198934816218561E-03
               4.1727160231447760E-03
              -9.6358691154790606E-04
               9.9754635963054494E-04
              -1.5928042318717854E-03
               7.2198001344191028E-03
              -1.6561073642594132E-03
              -1.1385403430207170E-03
              -9.1033100022122494E-03
               8.6201834366644407E-03
              -2.2548917373313771E-03
              -5.1183808571721671E-03
               3.3246112598792482E-03
              -5.0988417867594317E-03
               4.7825671211825229E-03
               1.2357662711652772E-02
               1.0983607127851751E-03
              -9.2052017045845614E-04
              -2.2090865478372598E-03
               1.6823935750873893E-03
              -6.1252957078996540E-03
               6.3166307687169063E-03
               6.5284886353713994E-03
              -6.2165236285018175E-05
               4.0307870080983190E-04
               2.3104706269360016E-03
               6.9180589789389615E-03
               1.9094257486611027E-03
              -7.4886845326788557E-03
               7.2746024397492360E-03
               2.6760694417811955E-03
              -1.0187564742288836E-02
              -2.4337179651334039E-05
              -3.5269378401837822E-04
               2.8397047344415243E-03
               7.2436640588757510E-03
               2.6128750494147446E-03
              -9.5022246361492479E-03
              -2.1262786577563100E-03
              -4.6046088274924154E-03
               7.4758460077299161E-03
               1.0318735665083590E-02
               1.0313332660426683E-03
              -4.3177445413783528E-03
              -2.4336775691836802E-03
               1.1625562459193222E-03
              -1.2925697935138205E-03
              -4.8627075367627514E-03
              -7.9356990991862469E-03
               2.5390962667914073E-04
              -4.7377605525316972E-03
              -1.2297236388670409E-03
               4.0728679796158676E-03
              -2.4367609053475244E-03
               2.2096893470391638E-03
              -5.5264253471642303E-03
               1.0525652965887822E-04
               5.2884517066579687E-03
               7.2754660021715897E-03
               3.0350610745019878E-03
               2.7882975561506172E-03
               2.2724007688461811E-03
              -5.3893535141781293E-03
               1.5490977579975457E-03
               3.5980037760626822E-03
               1.0732251083629485E-03
              -2.9670710308291300E-03
               2.7127435477963171E-03
               5.6069526167634521E-03
              -7.9790863717947374E-04
               9.5746901527942266E-04
               2.0422495632377953E-03
              -5.5430754822974734E-03
              -2.1810853844336157E-03
               9.6946838380116539E-03
              -1.4240057572486838E-03
               5.6893532242874838E-03
               4.6020852662766818E-03
               2.6667739678109376E-03
              -6.5658850121213539E-03
               6.0139846808523294E-03
               1.5822021269818092E-03
              -3.5127185910842139E-03
               6.3272700900744638E-03
              -5.9533703109542393E-03
               2.6768311050273299E-03
              -3.0830284941454956E-03
              -4.0105026781435031E-03
               1.2253792268809153E-03
               4.3643385872097233E-03
              -9.4167994918355116E-03
               3.5716930789705180E-03
               1.5887986410450352E-03
               1.5120989222642627E-03
               7.5115232378274738E-03
               3.9532157519130348E-03
              -1.8534817787219081E-03
               1.9235177199597004E-03
               1.7933715310079881E-02
               9.2000560435610899E-04
              -1.6300621503881639E-02
              -8.2405640091169838E-03
               3.3322764106910132E-03
               1.1128114907278171E-03
               1.0667428581787027E-03
              -4.0116761266795285E-04
              -4.4973598824714519E-04
              -1.2121916123547954E-03
              -1.0090538893547775E-02
              -6.0238082580320847E-03
              -2.4565450211413179E-03
               7.8692358931537962E-03
               4.5762698238890386E-03
               3.2971095339818412E-04
              -6.7402217864018688E-04
              -5.2816421127351680E-03
              -7.8208063684239663E-03
              -5.8085773123094499E-05
               4.5821030192953480E-03
               2.7521583730416590E-03
              -1.7613152738156816E-03
               7.1709128346395127E-03
              -2.9413323421509860E-03
               4.8524466807680494E-03
              -3.0016198268682575E-03
              -6.0381598815626852E-03
               6.0346518317283774E-03
               3.6190299548550847E-04
              -6.1913241880208773E-04
               2.6203403288022238E-03
              -1.5895161236363614E-03
              -1.8967173053353722E-03
              -2.1470977914148778E-03
               1.1538965406906708E-03
              -2.7002037439233626E-03
              -4.3379682331990999E-04
              -8.3669306797191060E-05
               4.8455922073576785E-04
              -1.0894139989046018E-03
              -2.1084527589000542E-03
              -2.3220278622902899E-03
               5.4375678912949822E-03
               1.7048605180546191E-03
               1.5160533528524043E-03
              -3.5743071071667569E-03
              -4.5933924555193913E-03
               4.8500756322023214E-03
               3.4433703349595313E-03
              -1.7750185171080016E-03
               1.3784451789887573E-04
              -6.9141496045720899E-04
               1.5887018824870225E-04
              -4.3477043302363476E-05
              -9.1693835735592562E-04
              -3.5992834658693917E-03
              -3.3189831041452863E-03
               1.1556265997351762E-02
              -7.4219517198347853E-04
               2.3525759610160623E-04
              -5.8207589529743354E-03
               1.8050148676146226E-04
               6.4664293941053283E-03
              -3.3210872592987629E-03
              -3.0310599502301055E-03
              -6.4405550443515976E-03
               5.8030670785296631E-03
               9.7677391572463471E-03
               2.7048618630837341E-03
              -3.9728289899834228E-03
              -2.7923736875679625E-03
               8.2048519045735348E-04
              -1.5777429097266492E-04
               8.6695062646232907E-03
               8.0633179583077647E-04
              -2.3137301842538591E-03
               6.2847016427998170E-03
               1.2135597319366011E-03
               7.2107679395833294E-03
               4.5615957728166847E-03
               4.7330906175582967E-03
               4.0830789954355165E-03
              -8.6148680503878756E-03
              -4.2015969829436572E-03
              -5.4880115035828170E-03
               3.6469313507630787E-03
              -1.3229272007694807E-03
               2.4861724240215028E-03
              -3.6742624380007062E-03
              -6.2166721231504901E-03
               5.9561549006978019E-04
              -1.4812670356419686E-03
              -4.4421282481059586E-03
               5.9397609729526686E-03
               1.0700903978473212E-02
              -1.0277281962630474E-03
               3.8193009637777905E-03
               7.2535857907180413E-03
               7.9880446019904763E-03
              -8.8765911170817068E-03
              -4.7157663726279395E-03
               1.9450596293416342E-03
              -1.5705468236920964E-04
               1.4639842557965087E-03
               3.7317440214113605E-03
               2.0796534338058574E-03
              -1.6865263351178641E-03
              -4.0228032838479410E-03
               6.4220853558015160E-03
              -4.5568719564220411E-03
              -7.3352741864404531E-04
              -1.9967403875695792E-03
              -7.4350983642622337E-04
              -1.8889786221637269E-03
              -1.1631017489342065E-03
               2.5733549671984389E-03
               7.4347136425163716E-03
               1.1277857950700266E-03
              -3.1268743546407117E-03
              -4.5597710673568716E-03
               6.9008108124864599E-04
               4.7400614476140624E-03
              -1.2739661666898593E-03
               4.8508725016610608E-03
               6.0152181255037082E-03
               4.4952499862645151E-03
              -5.4742756571155883E-03
               2.6884428659592419E-03
               2.6106074646633419E-04
               3.6259350160119611E-03
               1.9678848764209748E-04
               4.1597977236582980E-03
               2.2200887381737490E-03
              -3.7778378036681837E-03
               1.5210717127496544E-03
              -1.1118572879147900E-02
               1.5311079337923136E-02
              -4.4074049161948329E-03
              -5.3391477912825714E-03
              -5.3702672269152242E-03
               3.6124916788876390E-03
               3.8360605778390523E-03
               2.6525500087951977E-03
               2.9518923693538932E-03
              -3.2226934881301366E-04
              -3.3783318140988236E-03
              -1.2005832694505870E-02
               9.7438711963955364E-03
              -7.9772809371127136E-03
              -4.7397727760506913E-03
               1.7352836599241806E-03
               6.4690897654729376E-03
               3.9143425405544748E-03
              -1.5268732134799347E-02
               5.6090305120468876E-03
               1.0596013403760039E-03
               2.5555116672226963E-03
              -1.6349721797471804E-03
               3.0868502936187577E-03
              -2.3581435641135749E-03
              -5.2010494422906816E-04
               4.0021471241253846E-03
              -1.5625896422761896E-03
               4.1121204014968708E-03
              -1.1467602315181683E-03
              -4.2206096266026120E-03
              -2.9887470239658071E-03
               3.8649513101923307E-03
              -1.4334809445609858E-03
               2.2800170355301835E-03
              -2.7631605895186914E-03
              -2.6649511085577058E-03
               6.4905815847091462E-03
               2.5033710135364319E-03
              -4.7534420515873569E-03
              -7.1277723583585912E-03
               2.1659185940145912E-03
               4.1034348938405541E-03
               6.0444661875606940E-05
               5.4297655725005908E-03
              -3.7961218385632097E-03
               6.5364896131720265E-03
               2.1066005738536158E-03
              -1.1623656835351093E-02
              -3.2504985111105954E-03
              -1.6377530414094393E-03
              -3.4352999720008840E-03
              -2.1123540096428589E-03
              -2.4633618668083450E-03
              -4.3613314735056110E-03
              -4.0779199870582877E-03
               9.7247467953159080E-03
              -1.2533102116725652E-03
               7.1023299629638798E-03
               6.4480738018292188E-04
              -1.0866767423440000E-03
              -1.5424496260834607E-03
              -1.9318754150999342E-03
               8.4293644966973828E-03
              -3.4065079341129576E-03
              -4.0968208760730120E-03
               5.3520445666679637E-03
              -3.9959549981505608E-03
              -2.8545866295448027E-03
              -2.1036269855914799E-03
              -3.0915021188027561E-03
              -4.5512000810765535E-03
               3.1726950836403990E-03
               3.0021828936800292E-03
               8.6881721242910818E-03
               9.1357113059631484E-03
              -5.1601292054434204E-03
         &END THERMOSTAT_ENERGY
         &RNG_INIT
Wiener process for Thermostat # 1        1 F T T  -9.8236738167888460E-01         226733040.0        4248387519.0        1164353849.0        2758509449.0        3644127687.0        1764793484.0             12345.0             12345.0             12345.0             12345.0             12345.0             12345.0             12345.0             12345.0             12345.0             12345.0             12345.0             12345.0
Wiener process for Thermostat # 2        1 F T T  -1.4171306107827426E+00        1528154308.0        2775625301.0         197130159.0        1452211673.0        1835562137.0        1983376171.0        3692455944.0        1366884236.0        2968912127.0         335948734.0        4161675175.0         475798818.0        3692455944.0        1366884236.0        2968912127.0         335948734.0        4161675175.0         475798818.0
Wiener process for Thermostat # 3        1 F T T   8.6049543281786645E-01        2248570378.0        1724762616.0          52903713.0        3229622658.0        3199004837.0        4241126217.0        1015873554.0        1310354410.0        2249465273.0         994084013.0        2912484720.0        3876682925.0        1015873554.0        1310354410.0        2249465273.0         994084013.0        2912484720.0        3876682925.0
Wiener process for Thermostat # 4        1 F T T  -1.5460863137690717E+00         957380376.0         510326667.0        2247033635.0        2033071685.0        3054261466.0        3462352516.0        2338701263.0        1119171942.0        2570676563.0         317077452.0        3194180850.0         618832124.0        2338701263.0        1119171942.0        2570676563.0         317077452.0        3194180850.0         618832124.0
Wiener process for Thermostat # 5        1 F T T   1.5428690481661575E-01        4203301200.0         738999836.0        1485820986.0          20648636.0        2223680357.0        4294941489.0        1597262096.0        3906379055.0        3312112953.0        1016013135.0        4099474108.0         275305423.0        1597262096.0        3906379055.0        3312112953.0        1016013135.0        4099474108.0         275305423.0
Wiener process for Thermostat # 6        1 F T T   7.0411917217518150E-01        1265311014.0        3687607523.0        1792102642.0         142025920.0         459804801.0        1211121065.0          97147054.0        3131372450.0         829345164.0        3691032523.0        3006063034.0        4259826321.0          97147054.0        3131372450.0         829345164.0        3691032523.0        3006063034.0        4259826321.0
Wiener process for Thermostat # 7        1 F T T  -9.5744195640119531E-02        4040223344.0        4246262317.0         329086624.0          28777921.0        2946509694.0        1489700490.0         796079799.0        2105258207.0         955365076.0        2923159030.0        4116632677.0        3067683584.0         796079799.0        2105258207.0         955365076.0        2923159030.0        4116632677.0        3067683584.0
Wiener process for Thermostat # 8        1 F T T  -1.2413826789147817E-01         252045112.0        2848200345.0         154646410.0        1271924195.0        1873079261.0        3351978939.0        3281794178.0        2616230133.0        1457051261.0        2762791137.0        2480527362.0        2282316169.0        3281794178.0        2616230133.0        1457051261.0        2762791137.0        2480527362.0        2282316169.0
Wiener process for Thermostat # 9        1 F T T   1.0331244080464512E+00        3784506675.0        1914172684.0        3527875272.0        1610827989.0        3855196701.0        1117597481.0        3777646647.0        1837464056.0        4204654757.0         664239048.0        4190510072.0        2959195122.0        3777646647.0        1837464056.0        4204654757.0         664239048.0        4190510072.0        2959195122.0
Wiener process for Thermostat # 10       1 F T T   2.1466585360569199E-01        3057685686.0        2869029583.0         411221469.0        2821893460.0         322924656.0        1143227575.0        4215590817.0        3862461878.0        1087200967.0        1544910132.0         936383720.0        1611370123.0        4215590817.0        3862461878.0        1087200967.0        1544910132.0         936383720.0        1611370123.0
Wiener process for Thermostat # 11       1 F T T  -4.4132046785776799E-02        1554543736.0        2717576499.0        4135075403.0        2618383353.0         642871762.0         249586537.0        1683636369.0         362165168.0         814316280.0         869382050.0         980203903.0        2062101717.0        1683636369.0         362165168.0         814316280.0         869382050.0         980203903.0        2062101717.0
Wiener process for Thermostat # 12       1 F T T  -5.6161533877704317E-01        1770324141.0        3770017049.0         190859559.0         764828178.0        2918138424.0         736540625.0         272317999.0         166758548.0         310112982.0         201045826.0        1680231254.0         118290799.0         272317999.0         166758548.0         310112982.0         201045826.0        1680231254.0         118290799.0
Wiener process for Thermostat # 13       1 F T T   9.7554409384929153E-01        3627045108.0        1898589428.0        2752141753.0          85759421.0        2499273175.0        1137986601.0        2245755202.0        1652682525.0        2865544364.0         721509566.0         209733568.0         592362218.0        2245755202.0        1652682525.0        2865544364.0         721509566.0         209733568.0         592362218.0