 # Version information for this restart file 
 # current date 2022-11-29 18:30:00.769
 # current working dir /scratch/work/courses/CHEM-GA-2671-2022fa/cl6661/comp-lab-class/Week12/Runs/Proton
 # Program compiled at                              Sat Dec 12 18:27:15 EST 2020
 # Program compiled on                                         cs001.nyu.cluster
 # Program compiled for                                                nyu-intel
 # Source code revision number                                       git:8c64c6e
 &GLOBAL
   PRINT_LEVEL  LOW
   PROJECT_NAME proton_aimd_1ps_every0.5fs
   RUN_TYPE  MD
   WALLTIME 21600
 &END GLOBAL
 &MOTION
   &GEO_OPT
     OPTIMIZER  BFGS
     MAX_ITER  100
     MAX_DR     3.0000000000000001E-03
     &BFGS
     &END BFGS
   &END GEO_OPT
   &MD
     ENSEMBLE  NVT
     STEPS  2000
     TIMESTEP     4.9999999999999994E-01
     STEP_START_VAL  1500
     TIME_START_VAL     7.5000000000000762E+02
     ECONS_START_VAL    -1.1027618510476257E+03
     TEMPERATURE     3.0000000000000000E+02
     &THERMOSTAT
       TYPE  GLE
       REGION  MASSIVE
       &GLE
         NDIM  5
         A_SCALE     1.0000000000000000E+00
         A_LIST     1.8595758612559999E+02    2.7263853498399998E-01    1.1526100454610001E+01   -3.6414578262600003E+01 \
             2.3173375816020001E+02
         A_LIST    -2.7809524712060002E-01    8.5951591808710006E-05    7.2189048017650004E-01   -1.9844539343859999E-01 \
             4.2409257583420001E-01
         A_LIST    -1.4825808131210000E+01   -7.2189048017650004E-01    1.3590902121280000E+00    5.1498896280349999E+00 \
            -9.9949268450990001E+00
         A_LIST    -1.0372189126880000E+01    1.9844539343859999E-01   -5.1498896280349999E+00    2.6661910891169999E+01 \
             1.1507715495310000E+01
         A_LIST     2.1801346360420001E+02   -4.2409257583420001E-01    9.9949268450990001E+00   -1.1507715495310000E+01 \
             3.0958394565589998E+02
         &THERMOSTAT_ENERGY
               8.2176264314673701E-04
              -1.6552818811235402E-03
              -7.4928110320275979E-04
               2.4354599067867738E-03
              -1.8625959962049791E-02
               1.4172652848519268E-03
              -4.3668741502558284E-03
              -1.6255960853883786E-03
               5.7988784253491321E-03
               3.1820502186187456E-03
               5.0500233982674432E-03
              -4.5091527174134808E-03
              -7.9918711724415647E-04
              -1.0942017174291083E-02
               7.3902926518857369E-03
              -5.5166342558171967E-03
               8.7856467378082538E-04
              -4.1132464792805563E-04
               4.8989112971193696E-03
              -1.9949426062906219E-03
               2.3178348877429971E-03
               7.5612592703723624E-03
              -1.0074638559510629E-02
              -6.0237457966517364E-04
              -1.1254285033199234E-03
              -3.5625806284654486E-03
               2.7443656117372445E-03
               2.2357919728191355E-04
               1.1132740142485529E-03
               3.4941510863510106E-03
              -6.9652704662516397E-03
              -5.6804610319399129E-03
               1.3790679448798523E-02
               4.6930381856476197E-03
              -9.8155891362585596E-03
               1.7629009491167680E-02
              -1.1611203589278170E-03
              -3.4461810513021322E-03
               1.0053300570633935E-04
               2.5068724033404559E-03
               3.6405197127263138E-03
              -8.0152547275760648E-04
               7.3967676654294826E-03
               4.2909352774132977E-05
               2.9440777637022237E-03
               5.3343387024978785E-03
              -4.1854472446326034E-03
               1.2907393184192566E-03
              -4.6571594734409847E-04
               1.9600063762158088E-03
              -1.4733203037716083E-03
               4.0770517164564107E-04
              -3.7042099566141364E-03
              -6.3883651038067098E-03
              -6.9387872025998597E-03
               5.5990230566993300E-03
               2.8571168374419494E-03
              -1.8656449217639500E-03
               3.0341918516868789E-03
               7.0646520353352671E-03
              -2.9954582872602268E-03
              -1.1252463164317227E-02
               2.1566782220813790E-02
               4.8635969417289973E-03
               5.0978415830230817E-03
               8.9633869170619510E-03
              -5.5112963354705825E-03
               8.5817808808510820E-03
               1.1651555890763899E-02
              -1.4159834485406241E-03
              -3.5990323551708427E-03
              -7.3257009900260361E-03
              -4.4943882929505095E-03
               5.1162208814225520E-04
              -3.1915101368247766E-03
              -7.4995957988533268E-03
               6.3784570680253004E-03
               1.0845330678282876E-03
              -3.3787705265464268E-04
              -5.7179509416941873E-03
               5.8087901214295967E-03
              -1.9569790460417609E-03
               1.0557918543102444E-03
              -2.3327324913931346E-03
               1.3504199151677173E-03
               5.6080056701978583E-03
              -3.6374160735413680E-03
               7.3146789561617763E-03
               6.3462393321721744E-03
              -6.2434149601035393E-03
               2.3702982584167072E-03
              -4.3531451950248306E-03
               5.2792764835669498E-03
              -3.0905459713655476E-03
              -6.5818759961183658E-03
               5.7175761381699089E-03
               2.3290084594226597E-03
              -1.2454626333292629E-03
               1.0031578119738555E-02
               5.8533367526596150E-03
              -7.8934999325651727E-03
              -2.8049737951499299E-03
               2.7533875356072729E-03
              -2.0480191356008412E-03
              -6.3018013458570549E-03
               5.7010871314916391E-04
               8.3840675110284906E-03
              -4.0933962201244976E-03
               6.6607215155766080E-03
              -4.4627387767828958E-03
               3.0452118323172453E-05
              -3.2450430156814834E-03
               6.4622840851577068E-03
               8.6687758092833852E-03
               4.5397720838751356E-04
              -3.5696922488575125E-03
              -6.0411070556614099E-03
               3.1418943375856275E-03
               1.6353471100013319E-03
               8.8583567539167398E-04
              -3.6733211172015829E-03
               6.5205484892861838E-04
               4.1236692405989548E-03
              -3.2103793785440904E-03
              -6.6261618149224847E-03
              -3.7298653371472829E-03
               5.5287465906009641E-03
               4.5282090127562969E-05
               2.4978592401047803E-05
              -5.3268809398062736E-03
              -4.4495254858582314E-03
               1.1075446481599745E-02
               2.6620344140238657E-03
              -1.2625268092420951E-03
               1.2059241712457675E-03
               7.6870922319940234E-04
              -3.4684267949314064E-03
              -1.0715686335300849E-03
              -2.4439491620399175E-03
              -4.5971520632895785E-04
              -2.1964925023953783E-03
               7.2114841345469523E-03
               1.2855002744644614E-02
              -1.7997895914013053E-02
               2.5871079394216368E-03
               4.8329133951546636E-05
               8.3693599797666010E-03
              -1.1154648229012489E-03
               3.9317951021253808E-04
              -2.1152250694072895E-03
              -1.5562160105308531E-02
               3.4866005079826198E-03
               1.8459452090385754E-03
              -2.6642748940848191E-03
               2.8032704076260814E-03
               3.8641158160688150E-03
              -1.4898814855550079E-03
              -5.5048746643630905E-03
               4.9015512616919950E-03
               1.5962669306687589E-03
               2.1324247199001147E-03
              -8.2264974947989357E-04
              -2.1944070396943439E-03
               1.3247432013039114E-03
               6.0787156010496824E-03
               1.9751904662624987E-02
               1.6716143643226982E-03
              -1.2074846432215363E-02
               1.5787530975556008E-03
               1.3387214406626708E-03
              -1.9927180734665554E-03
              -7.1124008106323243E-04
               7.1090641002189573E-03
               8.4470078586347877E-04
               4.0657594121447406E-02
               1.2114785525561262E-02
              -4.0483643028000928E-03
              -7.7480484618420509E-04
               1.3829435525490732E-02
               4.0245024707439682E-03
              -1.1737491071193599E-04
              -9.8827288846232396E-03
               2.8089771777574064E-02
              -6.0343651689866665E-03
               9.1771472485030698E-04
              -1.2174508721329877E-03
               1.4814635368990614E-02
              -2.4751815806286284E-03
               7.5871938456395244E-04
              -6.2575499927149960E-05
              -4.9492166701684392E-03
               8.7719197697673132E-04
              -6.2508621951490838E-04
               2.1889209873454866E-03
               8.9913265856262619E-03
               8.9768568219382623E-03
              -6.2922601254504652E-03
              -4.0381539888259838E-03
              -3.4749842444134664E-03
              -5.7319583559662770E-03
               6.5353991216072563E-03
               5.7906748541811590E-03
               2.0176527347601026E-03
               3.4882097476997579E-03
              -7.8419445803589675E-03
              -5.9458108809577652E-03
               7.2897697807097709E-03
               2.7990707767408386E-03
              -5.0439854302991288E-03
               2.6799458050490435E-03
              -5.6344062711312292E-03
               2.1052195798975997E-03
               4.7091462659626528E-04
               2.6762126132887196E-03
              -4.4571734757940440E-03
               5.3376507468930780E-03
              -1.1640816604952017E-02
               1.1029448785006810E-02
              -3.5434921132735898E-03
               6.3011986437537864E-03
              -3.2418360467994969E-04
              -9.3953802158663815E-04
              -8.0055287390123492E-03
               3.4022883448718067E-03
               5.0819146135276886E-03
              -4.6089475933520902E-04
              -7.3744107576827261E-03
               6.8263228738616351E-03
               4.3227764041943485E-03
              -1.9971809745111457E-03
              -4.6020272974410465E-03
              -2.9007899983497180E-03
               7.4417428396541026E-03
               2.1689826693074947E-03
              -4.6255748902346121E-03
              -3.2195084817104574E-03
              -6.3493600938387780E-03
               2.5985915752777672E-03
              -2.3045328766232243E-03
               1.8409677994200851E-04
               4.3537781313929330E-03
               2.5061416364012368E-03
               5.6567371402271704E-03
               3.1061254440030623E-04
               9.5139045741781211E-05
               1.7018149718106661E-03
              -2.2295810923360099E-03
               1.1562143715663662E-03
              -4.2371143862624952E-03
              -3.3012303588749806E-03
               8.1795371241864343E-03
              -1.5823870153791528E-03
              -3.9650608520231502E-03
              -7.8238640618211747E-03
               7.8972010143993944E-03
               3.5346388831603427E-04
              -8.1875575675929651E-04
               5.2739401481808699E-03
              -8.5810337259950437E-03
              -1.6588315773763402E-03
               1.2200216595903157E-02
               3.0384640904366879E-03
               4.2663510165993380E-03
              -5.4249582783588018E-05
              -2.6609805484198688E-03
              -4.7098879514387657E-03
              -4.4862478248597468E-04
               1.8463326455330454E-03
              -3.0563188541886553E-03
               9.0614902255224221E-03
               2.1061474105759635E-03
              -3.4201926110255460E-03
              -2.0249499353967213E-03
               8.8755745649933410E-03
               1.4620010210175073E-03
              -5.6417679412072048E-03
              -1.1604741375782717E-02
               1.0647793222013056E-02
               3.7441927378361245E-04
              -7.8724988185233623E-03
               5.3908586760733710E-03
              -4.9974436353736034E-03
               4.9207836017011678E-03
               1.4631664860183753E-02
               3.2122946381524025E-05
               1.6792235524051079E-03
              -7.4124876876282119E-03
               7.8812642699058893E-05
              -1.2499927021393856E-02
              -1.6611237732213637E-04
               1.4719603607171351E-02
              -5.0404598523276793E-04
              -5.6857465982431453E-03
              -4.8068580953072714E-03
               8.4019798758871549E-03
               9.2999740523898675E-03
              -1.4444608687752776E-02
               1.6554414262022168E-02
               7.7926898453882718E-03
              -1.7298949284884162E-02
              -6.4124316205542496E-04
              -2.3316490150349601E-03
               1.0101988041167124E-03
               7.8525945974857857E-03
               2.2411349457655263E-03
              -1.4320904868534951E-02
               1.5628871417844622E-03
              -2.6247821122770717E-03
               1.2627350593795050E-02
               1.1097175481211008E-02
               5.3694288433020639E-04
              -4.6502993178439474E-03
               5.5414751304996637E-03
              -2.3758344546124686E-03
              -5.1278364242691313E-03
              -4.1576439849541338E-03
              -5.4546312326309082E-03
              -1.0165782660665596E-04
              -1.2122346270384577E-02
              -6.7174178392529387E-03
              -2.1956903113696815E-03
               8.7690039222689442E-04
               2.9250805436996955E-03
              -4.0458951527912197E-03
              -4.2592489229213827E-03
               1.1172320035849259E-02
               9.8749172217321244E-03
               2.6238413004175437E-03
               1.5569787132985286E-03
               4.7413636397267162E-03
              -5.3268265976919799E-03
               5.3343101054542496E-03
               2.7967505305863767E-03
               9.8251025179656301E-04
              -5.4917684004710790E-04
              -9.4625137729797905E-04
               4.9009182082712663E-03
               2.2477595862845394E-03
               3.9546374874354345E-03
               5.2298702082035492E-03
              -1.0085659340679953E-02
              -8.3543323762510398E-03
               7.8190372310468926E-03
               1.5088474336591782E-03
               6.3347450752059015E-03
               3.9024736510204971E-03
               4.0302395878769603E-03
              -8.2564203857347432E-03
               1.0638336195229543E-02
               1.4371967037424068E-03
              -8.8120318868554967E-03
               3.7437650330127423E-03
              -7.9642181427528810E-03
               1.0107801085710798E-03
              -1.2182692444701051E-03
              -4.5430172841363740E-03
               3.7669711975544949E-03
              -8.0602958291508455E-03
              -4.2563675809634367E-03
               1.5667412466193024E-03
               2.2009501847643226E-04
              -4.7853271513471777E-04
               1.3196421335487337E-02
               1.0230066020607731E-03
              -4.8955241054171646E-03
               5.8653295009044532E-03
               2.1458934431081145E-02
              -3.7486307920632706E-03
              -2.0504987358556485E-02
              -1.0512975635142261E-02
               9.7271928154898794E-04
               9.9491029082673758E-04
              -1.4780279403434462E-04
              -3.1110696250211452E-03
               2.1679185997704169E-03
               7.4632048331864549E-03
              -1.7623524365620351E-02
              -1.5890094581007694E-02
               7.9401521770080027E-03
               8.3382134033910746E-03
               5.7053188018659261E-03
               6.0017062935509525E-03
               1.1862008700834927E-04
              -5.1636363626364600E-03
              -1.9915232437331825E-02
              -1.5494505422538986E-03
               1.6755397435905435E-02
               1.2979702318004640E-05
               8.0792108774703879E-03
              -1.9822053184036795E-04
              -2.8777335315598503E-03
               6.6341049884242045E-03
              -8.0431773621789863E-04
              -2.4053002445960183E-03
               5.8013211263356701E-03
              -1.5055624589903002E-03
              -1.1197715449388071E-03
              -2.8153742195849955E-04
              -4.0717659602694748E-03
               2.6645850786621047E-04
              -2.0347607655812850E-03
               6.3168108747694565E-03
              -4.7082475916858848E-03
              -4.4010485746912003E-03
              -1.9378669245260181E-03
              -9.2130535414029963E-04
              -3.1088488187580245E-03
              -1.3910673212985745E-03
               2.4847197534497118E-04
               5.5599433801162938E-03
              -8.1509005285025605E-04
              -5.4661939168216432E-03
              -2.7189445611195515E-03
              -2.0164573870703854E-03
               8.2279663210810504E-03
               2.1174634017301682E-03
               2.6909692698877121E-03
               3.7925031527021106E-04
              -3.7275109611743627E-04
              -1.9099157469282383E-03
               1.3149751868178677E-03
               1.4464580654269836E-03
              -1.8840040114845593E-03
              -7.7598105632572696E-03
               1.3345013854847857E-02
              -5.8014635234757833E-04
              -1.8451784255589716E-04
              -6.4274291704864307E-03
              -7.2093053720075756E-04
               1.8042246433301878E-03
              -7.0253796228187749E-04
              -6.6918383346845824E-03
              -1.1358177303435652E-02
               5.9995591865821167E-03
               1.4658479493645332E-02
               4.8780783694251442E-03
              -6.6092000453827167E-03
              -1.2696528796006482E-03
              -2.3481334283698388E-03
               8.8852880135472101E-03
               5.1143525382647782E-03
              -1.0486591093846833E-03
              -1.1134641125874371E-02
               1.8431416474506475E-02
               2.4210826992335389E-03
               6.5552433034519386E-03
               4.8251061381205896E-03
               8.3632409107452770E-03
               5.4956495571920304E-03
              -1.2169221656072737E-02
              -6.4024461099604557E-03
              -3.4022124555460808E-03
               2.4645765030389460E-03
              -2.7397934542408282E-04
               2.1968898049550488E-03
              -3.9222118007377826E-03
              -1.6424547197745443E-02
              -8.6556058619082082E-03
               1.2386685589325117E-03
              -1.5824501900684683E-03
               1.2628877759481521E-02
               7.5432281214917064E-03
              -1.9627135478610435E-03
               2.8798056029393868E-03
               5.7060065457892432E-03
               2.0029420387605011E-03
              -1.2722947096060174E-02
              -1.3621264317719854E-04
               9.1981782548244875E-03
              -5.9380613568121143E-03
              -3.5195430624041734E-03
               1.5381626226802947E-03
               4.0921300277991027E-03
              -4.4148541845585464E-04
              -9.5027027778467484E-04
               5.8256519478707717E-03
              -4.7574569722403778E-03
               5.3304182347359719E-04
              -4.5381453041260962E-03
              -2.9568493151529399E-04
              -7.6796144495616821E-04
              -3.7676860594055730E-03
               3.8641054237325170E-03
               4.0859654823976162E-03
              -3.2646314839895781E-03
               9.9807793222394582E-04
              -2.6131523172851262E-03
               2.5741331783876425E-03
               2.4271220135388314E-03
              -2.0667835914299714E-03
               7.4667006719241489E-03
               4.6939167519578144E-04
               1.4402705503600022E-03
              -5.6555931234898178E-03
              -4.0420363691889968E-04
               7.0222882647598414E-03
               3.0711332210350837E-03
               4.1304405703413193E-03
               2.3248773778082191E-03
               4.0920813579460305E-03
               8.6839478425221849E-04
               3.7010391606786658E-03
              -8.1033014167752118E-03
               8.8982052716987930E-03
              -1.2270579339630121E-03
              -9.2914581899252741E-03
              -9.9643401134647917E-03
               6.6430838039434911E-04
               8.1668839647899630E-03
               5.7322424291945092E-03
              -4.6745913948332786E-03
               4.2967171885418915E-03
              -6.6573246952363432E-04
              -1.2799676246473322E-02
               1.3976983858446004E-02
              -1.9981519070216721E-02
              -4.3762312746860469E-03
               2.1299266162011260E-03
               6.9185034033648349E-03
               5.5492732824762164E-03
              -1.8037608879717892E-02
               7.8624708820760093E-03
               4.6307273381932185E-03
               7.7363949122086272E-04
              -1.3008818191910128E-03
               3.3916913839796476E-03
              -4.5548862064309992E-03
              -1.3505074805740429E-03
               8.3604029038097331E-03
              -3.2108491593346895E-03
               6.2197307991426493E-03
              -1.5337185295439485E-04
              -7.0149415421401030E-03
              -7.3679070022029721E-03
              -1.9730253671398608E-03
               7.5084662250137055E-04
               2.9359324087100537E-03
              -8.4209009200080680E-04
              -3.5182742850901529E-03
               6.4415455131143140E-03
               2.3968215906368683E-03
              -6.8006167992501285E-03
              -1.6273125855745156E-03
               1.9420510381020480E-03
               1.1339345931577417E-03
               2.6131715309187981E-03
               4.0288627893343672E-03
              -1.3704295596297233E-03
               7.0914747775368036E-03
               7.1842754759276614E-03
              -1.7888727435000935E-02
              -1.7656305563305293E-04
              -3.6859569254641816E-03
              -3.6980030903614194E-03
               1.3361262475257202E-04
              -3.3195073691439422E-03
               2.4758321335084940E-03
              -3.2010443743520512E-03
               1.0050544843501114E-02
              -6.6809894774595129E-03
               5.9729571061078240E-03
               6.2959527641426585E-03
              -1.4626248477907261E-03
              -1.9776314296209704E-03
              -8.8832341481207022E-04
               4.0105270093806116E-03
               1.6630694416987848E-03
              -2.7012244982490391E-04
               5.4838823695865626E-03
              -7.4507801550966939E-03
              -2.6304132838133338E-03
              -2.9942480311972810E-03
              -2.3680066386010156E-03
              -1.0970363477577745E-02
               8.8108300155363868E-03
               6.9918507281986828E-03
               1.3727139427784840E-02
               4.5670546809640075E-03
              -7.4007869344061908E-03
         &END THERMOSTAT_ENERGY
         &RNG_INIT
Wiener process for Thermostat # 1        1 F T T   1.0570193072987602E-01        2554248455.0        3733268398.0        2096963647.0         915983833.0        1292997779.0         989563289.0             12345.0             12345.0             12345.0             12345.0             12345.0             12345.0             12345.0             12345.0             12345.0             12345.0             12345.0             12345.0
Wiener process for Thermostat # 2        1 F T T  -5.0729818522276993E-01         187792199.0        1332764939.0        1272087322.0         282682701.0         988697858.0        4086000388.0        3692455944.0        1366884236.0        2968912127.0         335948734.0        4161675175.0         475798818.0        3692455944.0        1366884236.0        2968912127.0         335948734.0        4161675175.0         475798818.0
Wiener process for Thermostat # 3        1 F T T   8.9774137220556466E-02        3755061031.0        1753083868.0        1351179932.0         343881147.0        3312142877.0        1244557929.0        1015873554.0        1310354410.0        2249465273.0         994084013.0        2912484720.0        3876682925.0        1015873554.0        1310354410.0        2249465273.0         994084013.0        2912484720.0        3876682925.0
Wiener process for Thermostat # 4        1 F T T   2.1447125495896904E-01        2430503636.0         902227617.0        3039217662.0         205693714.0        2375800914.0        4220709598.0        2338701263.0        1119171942.0        2570676563.0         317077452.0        3194180850.0         618832124.0        2338701263.0        1119171942.0        2570676563.0         317077452.0        3194180850.0         618832124.0
Wiener process for Thermostat # 5        1 F T T  -7.4974817695318574E-01        3949927612.0        4293465109.0         224208328.0         677588237.0        2173092809.0        2514687022.0        1597262096.0        3906379055.0        3312112953.0        1016013135.0        4099474108.0         275305423.0        1597262096.0        3906379055.0        3312112953.0        1016013135.0        4099474108.0         275305423.0
Wiener process for Thermostat # 6        1 F T T  -2.3195632299180402E+00        4147399821.0         968438491.0         174961265.0         382156541.0        3672303660.0        2385050302.0          97147054.0        3131372450.0         829345164.0        3691032523.0        3006063034.0        4259826321.0          97147054.0        3131372450.0         829345164.0        3691032523.0        3006063034.0        4259826321.0
Wiener process for Thermostat # 7        1 F T T  -8.3038096976097500E-03        3725962017.0        3124905816.0        1692649901.0        3685368087.0         990134651.0        3321809881.0         796079799.0        2105258207.0         955365076.0        2923159030.0        4116632677.0        3067683584.0         796079799.0        2105258207.0         955365076.0        2923159030.0        4116632677.0        3067683584.0
Wiener process for Thermostat # 8        1 F T T   7.2955713326517235E-01        1426374835.0        1022225665.0        3431852557.0        2945126969.0        1347790872.0        2047858768.0        3281794178.0        2616230133.0        1457051261.0        2762791137.0        2480527362.0        2282316169.0        3281794178.0        2616230133.0        1457051261.0        2762791137.0        2480527362.0        2282316169.0
Wiener process for Thermostat # 9        1 F T T  -8.3876742673612970E-01        3633457436.0         863053678.0         665967915.0         928783000.0        4027924725.0        3556250224.0        3777646647.0        1837464056.0        4204654757.0         664239048.0        4190510072.0        2959195122.0        3777646647.0        1837464056.0        4204654757.0         664239048.0        4190510072.0        2959195122.0
Wiener process for Thermostat # 10       1 F T T  -6.7138423863751628E-01        3282585865.0         909372753.0         488063086.0        2442536289.0         174422437.0         477575080.0        4215590817.0        3862461878.0        1087200967.0        1544910132.0         936383720.0        1611370123.0        4215590817.0        3862461878.0        1087200967.0        1544910132.0         936383720.0        1611370123.0
Wiener process for Thermostat # 11       1 F T T  -7.2169956836733329E-02        3039538231.0          25912629.0        1608189467.0        1823124278.0        2331127605.0        2449500504.0        1683636369.0         362165168.0         814316280.0         869382050.0         980203903.0        2062101717.0        1683636369.0         362165168.0         814316280.0         869382050.0         980203903.0        2062101717.0
Wiener process for Thermostat # 12       1 F T T  -6.7722400494670465E-01        2762226669.0        4262778377.0        2250707948.0        3120407528.0        3704866228.0        1185520965.0         272317999.0         166758548.0         310112982.0         201045826.0        1680231254.0         118290799.0         272317999.0         166758548.0         310112982.0         201045826.0        1680231254.0         118290799.0
Wiener process for Thermostat # 13       1 F T T  -7.3817531449270457E-01        3689403510.0         367299738.0        3636386471.0        1925893934.0        3355800516.0        3520562622.0        2245755202.0        1652682525.0        2865544364.0         721509566.0         209733568.0         592362218.0        2245755202.0        1652682525.0        2865544364.0         721509566.0         209733568.0         592362218.0