 # Version information for this restart file 
 # current date 2022-11-29 19:29:34.178
 # current working dir /scratch/work/courses/CHEM-GA-2671-2022fa/cl6661/comp-lab-class/Week12/Runs/Proton
 # Program compiled at                              Sat Dec 12 18:27:15 EST 2020
 # Program compiled on                                         cs001.nyu.cluster
 # Program compiled for                                                nyu-intel
 # Source code revision number                                       git:8c64c6e
 &GLOBAL
   PRINT_LEVEL  LOW
   PROJECT_NAME proton_aimd_1ps_every0.5fs
   RUN_TYPE  MD
   WALLTIME 21600
 &END GLOBAL
 &MOTION
   &GEO_OPT
     OPTIMIZER  BFGS
     MAX_ITER  100
     MAX_DR     3.0000000000000001E-03
     &BFGS
     &END BFGS
   &END GEO_OPT
   &MD
     ENSEMBLE  NVT
     STEPS  2000
     TIMESTEP     4.9999999999999994E-01
     STEP_START_VAL  2000
     TIME_START_VAL     9.9999999999998226E+02
     ECONS_START_VAL    -1.1027618510476257E+03
     TEMPERATURE     3.0000000000000000E+02
     &THERMOSTAT
       TYPE  GLE
       REGION  MASSIVE
       &GLE
         NDIM  5
         A_SCALE     1.0000000000000000E+00
         A_LIST     1.8595758612559999E+02    2.7263853498399998E-01    1.1526100454610001E+01   -3.6414578262600003E+01 \
             2.3173375816020001E+02
         A_LIST    -2.7809524712060002E-01    8.5951591808710006E-05    7.2189048017650004E-01   -1.9844539343859999E-01 \
             4.2409257583420001E-01
         A_LIST    -1.4825808131210000E+01   -7.2189048017650004E-01    1.3590902121280000E+00    5.1498896280349999E+00 \
            -9.9949268450990001E+00
         A_LIST    -1.0372189126880000E+01    1.9844539343859999E-01   -5.1498896280349999E+00    2.6661910891169999E+01 \
             1.1507715495310000E+01
         A_LIST     2.1801346360420001E+02   -4.2409257583420001E-01    9.9949268450990001E+00   -1.1507715495310000E+01 \
             3.0958394565589998E+02
         &THERMOSTAT_ENERGY
              -5.2011279648109092E-04
              -3.9746008454528725E-06
              -5.3896217646725066E-03
              -2.2951280908703343E-03
              -1.7617045861414955E-02
               1.6124876348649984E-03
              -6.0572166930340041E-03
              -1.3640725861629452E-03
               9.5101762096502385E-03
               4.3112370908192990E-03
               7.8070545992125467E-03
              -8.1530795806009787E-04
              -7.5403448972237701E-03
              -7.4632324536331720E-03
               2.0622109875015112E-03
              -1.1871887712176369E-02
               7.3828600103963173E-03
               2.5845914355534486E-03
               3.6174103468479390E-03
              -2.1411172154475080E-03
              -1.9517719009582214E-03
               1.6179686462936139E-02
              -1.5828326651426798E-02
              -8.2314743896188276E-03
               3.5182744802465448E-03
              -2.9810406165877643E-03
               1.2261978902939300E-03
               1.4359255403542134E-03
              -2.2127674834850454E-03
               3.5525028818128731E-03
              -2.7474115603182032E-03
              -7.4697380070807718E-03
               1.3569514366727580E-02
              -3.5360446705129281E-03
               3.4566810730665485E-03
               1.3528123875031862E-02
               3.9179082272982986E-03
              -6.7921354859298757E-03
              -3.1936711245475714E-03
               6.1780383142666468E-03
               5.8007923146006649E-03
              -8.6873754002511454E-03
               5.6722025322397335E-03
               2.4289811299735798E-03
               5.9856899762136340E-03
               8.2159606148024793E-03
              -5.5745389056369200E-03
              -8.1929356455488799E-04
               1.9690976903077181E-03
              -2.1026796045450714E-04
              -9.9954444267287080E-04
               5.7706646507880762E-03
              -8.9798505117653638E-03
              -6.5751753300744651E-03
              -4.8945251825618895E-03
               5.8558743081398058E-03
               1.3847216798776789E-03
              -8.7204293855747891E-03
               3.2379593422849524E-03
               1.0941619882333871E-02
              -9.2753884417572140E-04
              -6.3541412271961271E-03
               2.2725884569526587E-02
              -2.2838827412685215E-03
               7.5448369397936874E-03
               5.5313815969612757E-03
              -5.6725228817250534E-03
               7.7946621354765796E-03
               1.5406857427209408E-02
              -2.5801376780764098E-03
              -9.6048232569244732E-03
              -4.5984587785337970E-03
              -7.0441749313386592E-03
               2.9492945523265247E-03
              -3.1102255610441585E-03
              -1.2243738622130053E-02
               6.5476260303005710E-03
               3.5121890141519181E-03
              -5.0163960125504403E-04
              -4.3231613496480092E-03
               8.3463605058174285E-03
              -4.0292145555361524E-03
               3.5523618911735989E-03
              -1.1422324125305791E-03
               1.1980781555038275E-05
               1.1987387305296275E-02
              -4.1622313740454038E-03
              -6.6441438817589811E-04
               6.2404740245112370E-03
              -8.6567325034318469E-03
              -1.0542329526990524E-04
              -5.4644024828233110E-03
               5.4737749610322232E-03
              -5.3125655198400521E-03
              -2.6778394646284902E-03
               3.8736614785372507E-03
               7.6731651330455451E-03
              -7.5420146970427474E-04
               1.0620831924959278E-02
               1.2337692691994620E-03
              -7.9095028736646412E-03
              -4.5447724041287815E-03
               2.6540455733503263E-03
              -7.8611860457254452E-03
              -1.7835999286228491E-03
               4.9616464869360541E-03
               7.6289328381789201E-03
              -7.5290507363802461E-04
               8.3640926201034617E-03
              -9.5708304512758385E-03
               3.5755457546210641E-04
               4.0530633145241645E-03
               7.3414220352615613E-03
               3.8265215319003110E-03
              -3.1611490006025283E-03
              -4.0554696681834937E-03
              -6.2603528365057920E-03
               5.3525579606407371E-03
               3.7589872557877860E-03
               1.4983722302273185E-03
              -2.0960565155879020E-03
               1.3166428322568154E-03
               6.0250928778393309E-03
              -2.4471765577220670E-03
              -7.4902135582920592E-03
              -5.9566452606311590E-03
               7.8582992163767403E-03
              -2.5068567353214488E-04
              -1.8568278352187435E-03
               2.9384758181673601E-03
              -6.2075783204864927E-04
               7.9513332120528506E-03
               2.5628482399492943E-03
              -7.3088720614024403E-04
              -6.5734127090778466E-03
               1.8807908390869295E-03
              -4.3222057785074017E-03
              -7.5023281889790021E-04
              -6.5589758964904286E-03
               1.1498151826933934E-03
              -9.7605072627637082E-03
               9.2727981750977771E-03
               1.5323090176308635E-02
              -2.4845482087660652E-02
               4.6854576187808760E-03
              -4.8251562515339271E-03
               5.2913785490045929E-03
               1.7053539690062790E-03
              -6.9502002660677220E-04
              -8.1316796948952854E-04
              -1.7013536209907167E-02
               6.4379045056691502E-03
               2.4112563953344081E-03
               8.2392902669195772E-04
               2.3125002948409857E-03
               3.8107805868510631E-03
              -4.5847931664919645E-03
              -1.1735776646329722E-03
               7.9516492358594915E-04
               1.3632260316419880E-03
              -5.4726805889622702E-03
               1.5647913391513507E-03
              -4.1159619921096761E-03
               2.5238193922667795E-03
               6.8460349977283556E-03
               2.6558669299401226E-02
               1.8516455137666710E-03
              -2.0705947079328230E-02
               6.1487283514111875E-03
              -3.7762419232648435E-03
              -1.9180487775064172E-03
               2.2429529382089427E-04
               7.8343979096820397E-03
              -2.1194671030142546E-03
               4.0348062867746289E-02
               1.2492808560981634E-02
              -4.6546142575374025E-03
              -5.7906095546837108E-03
               1.2974264693211449E-02
               5.3273467462622397E-03
              -2.6858358799213356E-03
              -1.2194413076696791E-02
               3.5969048584838889E-02
              -8.2209546707284979E-03
              -3.3927408924020728E-03
              -1.4693369258294180E-03
               1.6385039228913899E-02
              -2.5288189992894376E-03
              -2.5574025842119131E-03
               2.1674110002586218E-03
              -6.9062954325265274E-03
              -6.8363893271272355E-04
               4.0759043739237128E-04
               1.9117655788001111E-03
               5.6792779430601291E-03
               1.2459393432964934E-02
              -4.2643303187225312E-03
              -7.0816559203540751E-03
              -7.4203089553984509E-03
              -6.6780257530979189E-03
               9.5849141695996728E-03
               7.4807548315959180E-03
               2.1326609587250063E-03
               3.3382966282245151E-03
              -1.1005523049740394E-02
              -8.7912037148963219E-03
               9.7734930900165440E-03
               4.1648178045524571E-03
              -7.3647412275935119E-03
              -2.5835111930255761E-03
              -4.1141715883189203E-03
               1.5246771292766583E-03
               2.0618391995023142E-03
               8.2225352720256377E-03
              -6.0251676595610123E-03
               8.7505088718408900E-03
              -1.8571615108206506E-02
               1.4524844569891601E-02
              -2.7208641548054770E-03
               7.7486534112527136E-03
              -1.8099572602730278E-03
               8.4629205577410409E-04
              -9.2739100542473685E-03
               6.6769524260855426E-03
               1.1555947419908747E-02
              -5.8592933912938764E-03
              -9.3933025315729515E-03
               4.5059171776966967E-03
               4.4257274359511493E-03
              -7.7568965998650523E-05
              -3.8035029131926992E-03
              -4.3637917397103369E-03
               6.1188347120877985E-03
               1.3811081380782216E-03
              -2.9846316520632972E-03
              -4.9776459221440089E-03
              -8.8742955208252761E-03
               3.0438522076880730E-03
              -4.2962835575469148E-04
              -2.2743100566349960E-03
               5.6158444172498007E-03
               4.0717399015036690E-03
               7.1152898831146382E-03
              -1.5704528834651992E-03
              -1.8074148678639821E-04
               5.7644330911782761E-03
              -1.3556887050171842E-03
               1.9224063614239862E-03
              -5.3978509284081334E-03
              -5.0236213456921665E-03
               1.3701079568175697E-02
              -6.5964115483939179E-03
              -8.2875655323139813E-03
              -8.0512709756327457E-03
               9.2157579674079382E-03
              -4.3806071189401840E-03
              -2.9628083374903563E-03
               8.4829989194028666E-03
              -7.0177798612957127E-03
              -6.3863549828962717E-03
               7.4225859911268089E-03
               9.0798295628441300E-03
              -2.9320742517220505E-03
              -3.9723550020344454E-04
              -3.9407589142086861E-03
              -5.4425241974811866E-03
              -1.3313730995797603E-03
               4.4100049208474768E-03
              -4.5361904089541022E-03
               6.3208890868100293E-03
               5.6016002863352420E-03
              -6.6737950431244378E-03
               9.8654566427303970E-04
               8.5390429622656354E-03
               4.2349548572689581E-03
              -5.4977633819920969E-03
              -1.3253241810970701E-02
               9.5799334099985114E-03
              -7.8639628485431404E-04
              -6.0904755209225218E-03
               3.0196437279252477E-04
              -5.3426552342701484E-03
               4.8889758188202393E-03
               1.5434130139518545E-02
              -8.3208793783822658E-04
              -1.4847497484295840E-03
               3.7797117626062952E-03
               1.1663858749133376E-03
              -1.2810772421190020E-03
              -1.6331394277764007E-03
               9.8621727255205089E-03
              -8.7822080855816918E-04
              -6.4786641481611616E-03
              -1.3762931554038235E-03
               1.1469672158428808E-02
               1.8628323808624414E-03
              -1.4262623870763937E-02
               2.1051422613662843E-02
               5.3545615917209794E-03
              -1.2115206395381238E-02
               2.1285993713872822E-03
              -2.2561800908302955E-03
               8.5467489591598228E-04
               1.2124485930652672E-02
               4.6776312244779496E-04
              -1.4289680987988877E-02
               1.8278326097861672E-03
               1.0424500535237877E-03
               1.4446391461826063E-02
               1.4036880195838843E-02
              -3.7481956258642870E-04
              -4.6915746112884621E-03
              -2.8688654556066396E-03
               1.7016559690362612E-03
              -9.0820694633286629E-05
              -7.4043937694054044E-03
              -1.1409173552371841E-02
               8.6195948715517539E-03
              -1.3764076491122598E-02
              -2.8417784043144817E-03
               5.3999250974506160E-03
               3.1151516031250627E-04
              -2.9108213909044508E-03
               5.7096863362723297E-03
              -5.8990271571392802E-03
               1.3209463825817589E-02
               9.9456240034733745E-03
               2.9473119967195387E-03
               2.5505353831611569E-03
               7.9961684576888917E-03
              -9.8034690261617416E-03
               6.9114672334863901E-03
               5.6285023172524869E-03
               1.3875164279108004E-03
              -1.6175864927857038E-05
              -5.5530157371413607E-03
               3.9430461671103641E-03
               2.8749029391257298E-03
               8.7846413146901777E-03
              -2.7688249374095567E-03
              -5.3726063340735278E-03
              -6.7067680653830663E-03
               1.2209349521658083E-02
              -1.8871629334968585E-03
               1.6939259282212507E-03
               1.6607416867400982E-03
               5.8421727597048239E-03
              -1.1105246764663405E-02
               1.1975001506729002E-02
               2.3505423764970958E-03
              -4.9007468118925802E-03
               7.1395427640676065E-03
              -8.3127840811360910E-03
               5.3445232673330050E-03
              -1.2017281314070324E-03
              -4.2847882511724356E-03
               6.3242846928555007E-03
              -7.9079456900855698E-03
              -1.6270953966042150E-02
               1.0546257304910251E-02
               6.0474310400693669E-03
              -6.7797086774578933E-03
               2.1606907224632987E-02
              -2.6775376858981540E-03
              -6.1778337498369952E-03
               4.2194903428812939E-03
               1.8432502684802201E-02
              -7.5574913296921637E-03
              -9.1156777854143785E-03
              -9.2728879626150767E-03
              -2.6496265717204977E-03
               6.2272667228082130E-03
               4.9903390475366659E-04
              -2.7097918002299713E-03
               5.4925142947206268E-03
               8.6549211047130294E-03
              -1.3590282522752630E-02
              -2.0308756643628106E-02
               4.5298972009751382E-03
               1.0268593758946509E-02
               7.2899592467006568E-03
               7.4745667514062603E-03
              -4.7016350363826408E-03
              -3.6421165363804916E-03
              -1.0510837741664931E-02
              -3.5253123135354780E-03
               1.4444370548001606E-02
              -4.1022174564258693E-03
               1.1719187954534636E-02
              -6.8533709558856934E-04
              -7.7410899547527964E-03
               8.0651219810114038E-03
               7.2601383899443964E-05
              -8.7964118774854737E-03
               1.2494315480209413E-02
              -4.8800553210929278E-03
               4.0097610887940057E-03
              -1.0776738127915419E-02
              -2.4161714980139529E-03
              -1.7811381468176334E-03
              -2.4470027555749804E-03
               4.6989917392312505E-03
               4.6912427273616971E-04
              -1.0433949871024138E-02
               6.9593713002610398E-03
              -1.3708960967813296E-02
              -2.1086876502759157E-03
               5.2453590700845595E-03
               1.1769041369363911E-03
               2.9281558470375933E-03
               6.8605683852960534E-04
              -4.9028901068808523E-03
              -3.8542973276369029E-03
               2.8480620916793119E-03
               9.3657162505406937E-03
               1.7427402409137924E-03
               2.6267946078089165E-03
              -6.7320138542327837E-04
              -1.6947604949170533E-04
              -2.8191698779959232E-03
              -2.1737574189854977E-04
               6.2631027897342073E-03
              -7.0531675563489677E-04
              -8.7717606967926045E-03
               1.5043206656073092E-02
              -4.5221673109705597E-03
              -5.6429306380873260E-03
              -4.1765541483240517E-03
               4.2831486678638264E-05
               2.7650868894032146E-03
              -3.7498311999129393E-04
              -7.6752256588356474E-03
              -1.3020540542377980E-02
               1.2413525176018422E-02
               1.3669325611033822E-02
               3.8537685758745729E-03
              -1.1324192197288285E-02
              -1.5667128525104061E-03
               3.3087242726602289E-03
              -7.2657694746259085E-04
               7.8265418918276857E-03
              -9.0464932071703951E-04
              -1.8800831993818514E-02
               2.4898483562115870E-02
               4.8212969438548754E-03
               9.5597678175953060E-03
               2.0282519468311794E-03
               1.5518551476704655E-02
               6.5557398494720549E-03
              -8.7305370499041572E-03
              -7.8079339697906753E-03
              -1.1048477183274686E-02
               9.4644911749803239E-03
               2.6164761007155058E-03
               4.2070248592817544E-03
              -2.8315221849773732E-03
              -1.1949245591523237E-02
              -1.5822547856689885E-02
               5.8626286048438191E-03
              -8.9952612630598717E-03
               1.0935183702435373E-02
               8.7602096085914096E-03
              -3.4097911431217043E-03
               7.2833753904907889E-03
               5.6853279184952603E-03
               2.6995619439626351E-03
              -1.3310526171021976E-02
               2.8946162696950896E-03
               8.3273831516577530E-03
              -1.0575064254046227E-02
               3.7971384580770176E-04
              -1.5106831945429621E-05
               4.0715938903170155E-03
              -1.7190548056210998E-03
              -2.9775172294158013E-03
               1.0318021158486821E-02
              -1.0060432624437560E-03
               2.1239118698579539E-03
              -4.8724152598996423E-03
              -3.5088967313899526E-03
              -1.8924233397479328E-03
              -3.5795087621836421E-03
               4.4752106391213239E-03
               2.7216960224687916E-03
              -4.3477697247633557E-03
              -9.4638153436982426E-04
              -3.6575132365646574E-03
               3.2813448316779191E-03
               8.3678766989664730E-03
               1.0162496626554829E-03
               7.5560952786720174E-03
              -2.5582337177183015E-03
               8.0424231121832123E-03
              -4.2233630285709502E-03
              -5.5127227146936836E-04
               6.0996801030454356E-03
               3.8200936465231155E-03
               4.8789629826985334E-03
               1.2429881209639292E-03
               6.3393868409257785E-03
               2.7979074553220085E-03
               1.5025517602906908E-03
              -1.4012244540210194E-02
               1.3959289688990545E-02
               7.9503364074428907E-03
              -1.5345352758409916E-02
              -1.0652079587625143E-02
              -1.0666212899694864E-04
               7.6190291329322245E-03
               4.2960313139484008E-03
              -7.2872426379819930E-03
               4.0179562133642729E-03
               2.2284446251145037E-04
              -1.0377475005261977E-02
               9.7816684520590138E-03
              -2.0658248515723846E-02
              -2.4750175381785754E-03
               1.5046360197231070E-03
               7.5536662064263418E-03
               4.1421150353722078E-03
              -2.2171189574781074E-02
               8.7998124203239169E-03
               4.8118801057884381E-03
               2.1961334466000767E-03
               4.1806953385257620E-03
               5.5783357242988477E-03
              -6.2409490762851136E-03
              -6.4365909645032449E-04
               1.4485488116529563E-02
              -5.2795358737609856E-03
               5.3704560517321195E-03
              -2.6922036722431915E-03
              -7.5714360336570259E-03
              -8.2877118503517557E-03
              -1.8751703843001590E-04
               1.6176837005184540E-03
               1.4649970878037690E-03
              -5.6732637892813284E-04
              -5.3636315837209420E-03
               2.5792619364893806E-03
               4.2492066516940531E-03
               9.3383140404636731E-04
              -1.9398289252617767E-03
              -1.2636723441899092E-03
               1.0113216875881756E-03
              -9.3907704077032925E-04
               9.1063149036156262E-04
              -1.1080816224427984E-03
               6.3185105944683238E-03
               4.9147723975145659E-03
              -1.9352990636519636E-02
               6.8836050306423638E-04
              -1.7376866644211021E-03
              -2.6547727138716186E-03
              -5.9371490067397124E-04
              -1.7785508458407016E-03
              -2.5083807857346494E-03
              -2.0546241421866766E-03
               1.0393615075502179E-02
              -4.9535139688056500E-03
               2.8225234786666735E-03
               4.6203213197862367E-03
               2.3664763387927290E-05
              -1.1970048946060574E-03
              -3.7753198028687711E-03
               2.2429264998329351E-03
              -1.1472611874624402E-03
              -6.1080730145601893E-03
               1.8568712133441713E-03
              -2.3758427800657390E-03
              -1.0363851773227135E-02
               3.1187393595559455E-03
              -4.0793335985170251E-03
              -3.5307941413422819E-03
               4.6672260491571705E-03
               1.2947719657508957E-02
               1.5283452200100817E-02
               2.5378791379291285E-03
              -6.6235260765977431E-03
         &END THERMOSTAT_ENERGY
         &RNG_INIT
Wiener process for Thermostat # 1        1 F T T  -4.3866331554119464E-01        3463026290.0         996283881.0        3077134961.0        1575188103.0         352198642.0        1255594993.0             12345.0             12345.0             12345.0             12345.0             12345.0             12345.0             12345.0             12345.0             12345.0             12345.0             12345.0             12345.0
Wiener process for Thermostat # 2        1 F T T   6.1664168869435698E-01         581397078.0        3867423482.0         327967633.0        1486938113.0          26429212.0        4093174459.0        3692455944.0        1366884236.0        2968912127.0         335948734.0        4161675175.0         475798818.0        3692455944.0        1366884236.0        2968912127.0         335948734.0        4161675175.0         475798818.0
Wiener process for Thermostat # 3        1 F T T   2.0518696979926636E+00        1062843694.0        3278483557.0        2630284801.0         342499437.0         508306288.0         570022504.0        1015873554.0        1310354410.0        2249465273.0         994084013.0        2912484720.0        3876682925.0        1015873554.0        1310354410.0        2249465273.0         994084013.0        2912484720.0        3876682925.0
Wiener process for Thermostat # 4        1 F T T   8.6483655468840070E-01         858988242.0         878260951.0        1341305949.0        1687735708.0        1261279903.0        1615458589.0        2338701263.0        1119171942.0        2570676563.0         317077452.0        3194180850.0         618832124.0        2338701263.0        1119171942.0        2570676563.0         317077452.0        3194180850.0         618832124.0
Wiener process for Thermostat # 5        1 F T T  -7.2623034709222295E-02        3503246388.0        3640749438.0          80160185.0        4050541932.0        1809135917.0         826251710.0        1597262096.0        3906379055.0        3312112953.0        1016013135.0        4099474108.0         275305423.0        1597262096.0        3906379055.0        3312112953.0        1016013135.0        4099474108.0         275305423.0
Wiener process for Thermostat # 6        1 F T T   2.6094790259997280E+00        1648662560.0         298744963.0         276080774.0        3452610735.0        2129471280.0        4132861437.0          97147054.0        3131372450.0         829345164.0        3691032523.0        3006063034.0        4259826321.0          97147054.0        3131372450.0         829345164.0        3691032523.0        3006063034.0        4259826321.0
Wiener process for Thermostat # 7        1 F T T   1.3118545096244869E+00        4025695046.0        1027992126.0        3217973651.0        2155997853.0        1780084567.0        1907814450.0         796079799.0        2105258207.0         955365076.0        2923159030.0        4116632677.0        3067683584.0         796079799.0        2105258207.0         955365076.0        2923159030.0        4116632677.0        3067683584.0
Wiener process for Thermostat # 8        1 F T T   7.1524753302764935E-02        2631328646.0          66904958.0        3191287979.0        3452779318.0        2048731614.0        3759050068.0        3281794178.0        2616230133.0        1457051261.0        2762791137.0        2480527362.0        2282316169.0        3281794178.0        2616230133.0        1457051261.0        2762791137.0        2480527362.0        2282316169.0
Wiener process for Thermostat # 9        1 F T T  -1.0980465140389938E-01        1977246253.0        1903248984.0        3508262652.0        2466127224.0         300284070.0         767034957.0        3777646647.0        1837464056.0        4204654757.0         664239048.0        4190510072.0        2959195122.0        3777646647.0        1837464056.0        4204654757.0         664239048.0        4190510072.0        2959195122.0
Wiener process for Thermostat # 10       1 F T T   1.9081094228418396E+00         405211316.0        3215252316.0        3029076279.0        3899943421.0         886526099.0         586515832.0        4215590817.0        3862461878.0        1087200967.0        1544910132.0         936383720.0        1611370123.0        4215590817.0        3862461878.0        1087200967.0        1544910132.0         936383720.0        1611370123.0
Wiener process for Thermostat # 11       1 F T T  -5.3344054384789541E-01        3450000619.0        1059116059.0        3916567347.0         635813254.0        3901690603.0        3696418470.0        1683636369.0         362165168.0         814316280.0         869382050.0         980203903.0        2062101717.0        1683636369.0         362165168.0         814316280.0         869382050.0         980203903.0        2062101717.0
Wiener process for Thermostat # 12       1 F T T   8.9448207812820613E-01        1696219248.0        1783691089.0        1685873716.0        1285524479.0        2726140602.0        4269630803.0         272317999.0         166758548.0         310112982.0         201045826.0        1680231254.0         118290799.0         272317999.0         166758548.0         310112982.0         201045826.0        1680231254.0         118290799.0
Wiener process for Thermostat # 13       1 F T T  -1.0297203341400047E+00        4019568919.0        3484227797.0         947541978.0        4224885921.0        2127446270.0         502669027.0        2245755202.0        1652682525.0        2865544364.0         721509566.0         209733568.0         592362218.0        2245755202.0        1652682525.0        2865544364.0         721509566.0         209733568.0         592362218.0