 # Version information for this restart file 
 # current date 2022-11-29 19:29:12.498
 # current working dir /scratch/work/courses/CHEM-GA-2671-2022fa/cl6661/comp-lab-class/Week12/Runs/Proton
 # Program compiled at                              Sat Dec 12 18:27:15 EST 2020
 # Program compiled on                                         cs001.nyu.cluster
 # Program compiled for                                                nyu-intel
 # Source code revision number                                       git:8c64c6e
 &GLOBAL
   PRINT_LEVEL  LOW
   PROJECT_NAME proton_aimd_1ps_every0.5fs
   RUN_TYPE  MD
   WALLTIME 21600
 &END GLOBAL
 &MOTION
   &GEO_OPT
     OPTIMIZER  BFGS
     MAX_ITER  100
     MAX_DR     3.0000000000000001E-03
     &BFGS
     &END BFGS
   &END GEO_OPT
   &MD
     ENSEMBLE  NVT
     STEPS  2000
     TIMESTEP     4.9999999999999994E-01
     STEP_START_VAL  1998
     TIME_START_VAL     9.9899999999998238E+02
     ECONS_START_VAL    -1.1027618510476257E+03
     TEMPERATURE     3.0000000000000000E+02
     &THERMOSTAT
       TYPE  GLE
       REGION  MASSIVE
       &GLE
         NDIM  5
         A_SCALE     1.0000000000000000E+00
         A_LIST     1.8595758612559999E+02    2.7263853498399998E-01    1.1526100454610001E+01   -3.6414578262600003E+01 \
             2.3173375816020001E+02
         A_LIST    -2.7809524712060002E-01    8.5951591808710006E-05    7.2189048017650004E-01   -1.9844539343859999E-01 \
             4.2409257583420001E-01
         A_LIST    -1.4825808131210000E+01   -7.2189048017650004E-01    1.3590902121280000E+00    5.1498896280349999E+00 \
            -9.9949268450990001E+00
         A_LIST    -1.0372189126880000E+01    1.9844539343859999E-01   -5.1498896280349999E+00    2.6661910891169999E+01 \
             1.1507715495310000E+01
         A_LIST     2.1801346360420001E+02   -4.2409257583420001E-01    9.9949268450990001E+00   -1.1507715495310000E+01 \
             3.0958394565589998E+02
         &THERMOSTAT_ENERGY
               2.1428380572250028E-04
              -3.0715893145132701E-05
              -5.6965725147878031E-03
              -2.9314222606286124E-03
              -1.7388900984455672E-02
               1.3035770013925631E-03
              -6.5482909506033356E-03
              -1.2117453144331102E-03
               1.0133077140458569E-02
               4.2168299570143914E-03
               8.4107323068805459E-03
              -8.4498585585405920E-04
              -7.6953536569982946E-03
              -7.2892417775648503E-03
               2.1304717073446192E-03
              -1.1857652021031501E-02
               7.3693059429456214E-03
               2.0690595903456203E-03
               4.3119051977167314E-03
              -1.5729454473126468E-03
              -1.8895722266030340E-03
               1.6126255641592761E-02
              -1.6205022572751096E-02
              -7.3080298823057447E-03
               3.5444279764506796E-03
              -1.9632503647184166E-03
               1.1919671780473505E-03
               1.0510773545566305E-03
              -2.1718366561924158E-03
               3.6446320761156711E-03
              -2.7066097884293826E-03
              -8.1766128005497304E-03
               1.3633699164880440E-02
              -4.4093264769111276E-03
               2.9515710855901791E-03
               1.3689831057247217E-02
               4.0057220559253197E-03
              -6.6268323917681535E-03
              -3.0859846079535828E-03
               6.1359140220214733E-03
               5.7826070167660767E-03
              -9.2621212621087270E-03
               5.9458312219770049E-03
               2.2912917044719361E-03
               6.0681937598119776E-03
               8.3190723877473258E-03
              -5.4378235565199591E-03
              -9.7678837335046656E-04
               1.1802210961877916E-03
              -3.5966083244213490E-04
              -2.6802247095332465E-03
               5.7643751127760302E-03
              -9.2514691672768296E-03
              -6.3451408685729089E-03
              -5.0202463544380387E-03
               5.3092281244739642E-03
               1.0402018532203764E-03
              -8.5922038923889610E-03
               3.4278556788892487E-03
               1.0356649514043997E-02
              -9.1248493642073422E-04
              -6.3734876573173132E-03
               2.2865331921806065E-02
              -2.5199554791711229E-03
               7.5056870371067183E-03
               8.2395999628492728E-03
              -4.7449816172833344E-03
               7.9352548116414217E-03
               1.5433371520381297E-02
              -2.7715786979179520E-03
              -9.6399181710746101E-03
              -4.5913736104731566E-03
              -7.1006845621692221E-03
               2.4535935676222496E-03
              -3.1017612453442915E-03
              -1.1558143013255025E-02
               7.0798147061960706E-03
               4.0612755001322928E-03
               8.0670392298356358E-04
              -4.1013192596486966E-03
               8.7325191947630210E-03
              -4.2860932290951018E-03
               3.3957438124814789E-03
              -6.7193950104463664E-04
              -4.9457313113845556E-04
               1.1376496005573973E-02
              -4.1046197499092331E-03
              -3.5250795509856085E-04
               6.3817372976139857E-03
              -9.1024844864689407E-03
              -1.4103353485577180E-04
              -4.8881360953194836E-03
               5.5124652947818441E-03
              -5.4557165036628842E-03
              -2.7073698760914974E-03
               3.7995711398037041E-03
               7.3682825736989576E-03
              -8.6700261630314824E-04
               1.0585321394740190E-02
               8.3716384283112209E-04
              -7.6551684695434288E-03
              -4.7381956584538710E-03
               2.6654944318657268E-03
              -7.9522697656766676E-03
              -2.6420743159309545E-03
               4.9036756052417575E-03
               7.6619120510776620E-03
              -1.2855907969493748E-03
               8.5659548521922965E-03
              -9.2787410528830348E-03
              -2.3655561367136069E-04
               3.6273222619028610E-03
               7.8027827035466787E-03
               4.1280648513806915E-03
              -3.2288869189201872E-03
              -4.0491250822652092E-03
              -6.1780467964471838E-03
               5.5214224671235913E-03
               3.7759944341813523E-03
               1.0838991121910973E-03
              -2.1916860048007999E-03
               1.2170167283386641E-03
               5.9974742799328348E-03
              -2.4305450823817586E-03
              -6.8761855988836561E-03
              -5.7183669505855034E-03
               7.6610341470847226E-03
              -2.2084171769701748E-04
              -1.1120608562482552E-03
               2.7843171086443701E-03
              -9.2858959866582314E-04
               7.9641283890750647E-03
               2.9863045681772791E-03
              -6.8181774672013520E-04
              -5.9912492863784805E-03
               2.2325104855446185E-03
              -4.8971580972401530E-03
              -1.0537221783365686E-03
              -6.1217035287431760E-03
               1.7787491737882967E-03
              -9.8513141223469831E-03
               1.0368965179372708E-02
               1.5359164196445051E-02
              -2.5027759842616144E-02
               4.9925786186256664E-03
              -4.9733530681399180E-03
               5.0868581862135009E-03
               1.9449743813009894E-03
              -8.0397252185087514E-04
              -1.0003890605752917E-03
              -1.7221891165886578E-02
               6.2347863379667561E-03
               2.2842858257616076E-03
               1.0773751997435769E-03
               1.7740877134362503E-03
               3.1548374189736268E-03
              -4.6749155791959325E-03
              -7.1931789111672655E-04
               2.1437760304336923E-04
               1.3990409597652304E-03
              -5.6307420379244563E-03
               1.4936527092367809E-03
              -4.5878075080860283E-03
               2.5145968535457992E-03
               7.3095299137129104E-03
               2.6460311655273110E-02
               1.2523308776028956E-03
              -2.1143737650290369E-02
               6.2700152859338490E-03
              -3.8063835207171933E-03
              -3.4645014734171592E-03
               7.5039805616548567E-05
               8.2581844810507010E-03
              -2.0671399555126676E-03
               4.0394521721919673E-02
               1.2604568712840721E-02
              -4.2862740469445347E-03
              -5.7082046223372231E-03
               1.3240551025187496E-02
               5.1524427016879423E-03
              -2.3194948815200194E-03
              -1.2360070920273487E-02
               3.5962352020495907E-02
              -8.3120553699901258E-03
              -3.1344735824809346E-03
              -2.0276621566358696E-03
               1.6737279097671628E-02
              -2.3995262254402606E-03
              -3.0138967613290227E-03
               1.6280213952453515E-03
              -6.8499868339095826E-03
              -6.5537741874238599E-04
               2.6227643168358426E-04
               1.8375774497629675E-03
               5.1108954680765322E-03
               1.2438096314939164E-02
              -4.5708713297697807E-03
              -7.2947318034955033E-03
              -7.3487072021331135E-03
              -6.6120527107578417E-03
               9.0050378253697730E-03
               7.5445221100311991E-03
               2.2769554009829970E-03
               3.2655416456329601E-03
              -1.1364780924169378E-02
              -9.3092148923280930E-03
               9.7072453783096299E-03
               4.4334169780436347E-03
              -7.3576822013900296E-03
              -3.0801083679007375E-03
              -4.1365640217835703E-03
               1.0764183560881778E-03
               2.5514191011577923E-03
               8.2059334981066569E-03
              -5.8737639649426385E-03
               8.6448431879573278E-03
              -1.8003020136762204E-02
               1.4183198636271727E-02
              -2.7317239067805948E-03
               7.7503242687373460E-03
              -1.7710919050084371E-03
              -3.0757306843598215E-04
              -1.0263094688438563E-02
               6.5748790411798283E-03
               1.1440185476490759E-02
              -5.8308411311495008E-03
              -9.4384738112236778E-03
               4.5270464629148547E-03
               4.3896505487653120E-03
              -2.2661508799126241E-04
              -3.8369788236589791E-03
              -3.9299874369791198E-03
               6.3864674425660227E-03
               1.8288148343251760E-03
              -2.2998694457363393E-03
              -5.4483740372815049E-03
              -9.0701014378459406E-03
               3.0469846172297868E-03
              -8.0345800996950553E-04
              -2.1993943528072720E-03
               5.6563319480314889E-03
               4.1240365167215859E-03
               7.6774461382748153E-03
              -1.6794883209453276E-03
              -7.1368642076622530E-04
               5.9209399328159279E-03
              -1.2849236793992511E-03
               1.9043045046722529E-03
              -5.7215571022552801E-03
              -4.6437748836001911E-03
               1.3671720142647283E-02
              -6.6149874939611308E-03
              -8.4547463995372271E-03
              -8.0478171951069832E-03
               9.3235184513776135E-03
              -4.1763817889981184E-03
              -3.0850405022838814E-03
               8.1344403072779823E-03
              -7.4953909441214054E-03
              -5.3120160019825254E-03
               7.5847949178292125E-03
               9.1323867898962449E-03
              -3.7999282247479036E-03
               6.8609249814009158E-04
              -3.5882864154342126E-03
              -5.3074738370569923E-03
              -2.4374165680011517E-03
               4.4137979985601579E-03
              -4.1455150812993134E-03
               6.3831182407389437E-03
               5.4733206369464377E-03
              -6.8119982636925622E-03
               1.0263301586298577E-03
               8.1844108249886898E-03
               4.1623920907999405E-03
              -5.5646669116361878E-03
              -1.3287470118472696E-02
               9.4182777414435464E-03
              -7.5765145850415579E-04
              -5.8544103726962489E-03
               1.5060571199536823E-03
              -4.9988786158535496E-03
               3.9554638127085101E-03
               1.5933425074984884E-02
              -2.4493274963114549E-03
              -2.1623640663208650E-03
               3.6173827913914881E-03
               1.1958789407873424E-03
              -9.3378045098715381E-04
              -1.4726198151561579E-03
               9.7647563045145259E-03
              -9.1830827563887376E-04
              -5.8605176071170389E-03
              -2.1671049941088295E-03
               1.1693139910739893E-02
               1.9674537833536507E-03
              -1.4134339333662715E-02
               2.1199575964470148E-02
               4.8175753451650148E-03
              -1.2106015160453157E-02
               1.7413879611168229E-03
              -2.4891282960569838E-03
               8.3829998331402648E-04
               1.2083820035403123E-02
               5.6129130463264940E-04
              -1.4365915907502132E-02
               1.5163450740667136E-03
               1.0314164217432190E-03
               1.4516928115002279E-02
               1.5283047138512317E-02
              -4.2422262369559341E-05
              -4.6246066416228701E-03
              -4.4195533326394990E-03
               1.7955634221126183E-03
               3.8119837583633332E-04
              -7.0731978605129619E-03
              -1.0999232723742952E-02
               8.8966466465556001E-03
              -1.4289510924945178E-02
              -2.8585134460054392E-03
               5.3983603459978151E-03
               6.2741333416971767E-04
              -2.5925957372107920E-03
               5.7444749127260443E-03
              -6.1674446894755784E-03
               1.3338767059656373E-02
               9.9803757660600675E-03
               2.9149580230055619E-03
               2.2105421119647511E-03
               7.7045094536861503E-03
              -1.1255712907379133E-02
               6.9228313557344523E-03
               7.8521051090516564E-03
               7.8849763314956141E-04
               3.1855173212730921E-05
              -5.2822018180109899E-03
               3.7381752042336533E-03
               3.1124228337110708E-03
               8.5418949944352403E-03
              -1.7583856587241502E-03
              -5.2982285073456606E-03
              -7.3019234084912860E-03
               1.2022486655338671E-02
              -2.1852344775780616E-03
               2.3108191157243177E-03
               1.7744722704172455E-03
               6.0640190637055473E-03
              -1.0911899257331440E-02
               1.1316981799072846E-02
               2.6689654523332834E-03
              -4.8580401627249482E-03
               7.1069533356910132E-03
              -8.1174995165472566E-03
               5.7091583939799786E-03
              -1.1308860700485221E-03
              -4.2042572891142285E-03
               5.9637359129712650E-03
              -8.0681386918421936E-03
              -1.6233587677489451E-02
               1.0694781742290108E-02
               6.3481445673045809E-03
              -6.7862203269408146E-03
               2.0766166671829938E-02
              -2.0105626835319967E-03
              -6.6256739949309470E-03
               4.3030476056559281E-03
               1.8465173776527136E-02
              -7.6382709163904123E-03
              -1.0124602748387373E-02
              -9.2934648192082945E-03
              -2.3852194878307784E-03
               6.3173616058116652E-03
               5.7090167084165291E-04
              -3.0460623566141527E-03
               5.2042845966342541E-03
               8.6367088882503152E-03
              -1.3644328624450639E-02
              -2.0318615390645358E-02
               4.4321944879620254E-03
               1.0249523371597980E-02
               7.0374493356931481E-03
               7.2273204487514316E-03
              -4.6639464359941292E-03
              -3.6554105968798962E-03
              -1.0669131774491291E-02
              -4.6013804710524613E-03
               1.4604631185482520E-02
              -4.0675439722763929E-03
               1.2082346714297655E-02
              -5.5491260110036562E-04
              -7.6611075239762074E-03
               8.1118503683359558E-03
               5.4356831066189912E-04
              -8.6015333262529914E-03
               1.2045854023183436E-02
              -4.7790990628298986E-03
               3.8447089475457052E-03
              -1.0741977955026953E-02
              -2.2727422679265355E-03
              -1.3410177445568306E-03
              -2.0325077801942380E-03
               4.2336007239965681E-03
               6.8081383058968259E-04
              -1.0188350176802915E-02
               5.5677750302021000E-03
              -1.3534596107914061E-02
              -2.8015997722276960E-03
               5.9822004284025652E-03
               1.4019891187182258E-03
               2.8949495187974863E-03
               2.7432297437000012E-04
              -4.9917657139572210E-03
              -4.4628822277349833E-03
               3.4897332121876490E-03
               9.1275374724518587E-03
               1.8304820842054946E-03
               1.9470341166325598E-03
              -7.2936550595200831E-04
              -1.0236544922677213E-03
              -2.9122074909683714E-03
              -4.2517094644529962E-04
               6.2424496235561960E-03
              -4.0482263417317035E-04
              -8.7426379038655633E-03
               1.5101957343697531E-02
              -3.6405266300260338E-03
              -5.4898505130477442E-03
              -3.8657162411445899E-03
               1.0481299880607327E-03
               2.7442929952472446E-03
              -2.2914498723408292E-04
              -7.3604323589237988E-03
              -1.3541458097016831E-02
               1.2330386704136125E-02
               1.3491744979177914E-02
               4.0718522578375889E-03
              -1.1007192954367211E-02
              -4.0825216038250199E-05
               3.3205140793753887E-03
              -9.6906898225296160E-04
               7.6307001530015609E-03
              -7.7037294343783791E-04
              -1.8314467069568185E-02
               2.4770487524572022E-02
               4.7279739763880484E-03
               9.5460684902835911E-03
               1.7574176902461383E-03
               1.5283823143240000E-02
               6.5855588686691592E-03
              -8.7781736765891998E-03
              -8.0792309262246870E-03
              -1.1001202294799067E-02
               9.4555126227535667E-03
               2.7294962542055616E-03
               4.8126397365550076E-03
              -2.7297234376857079E-03
              -1.1989682513806693E-02
              -1.6714282305234789E-02
               5.7949708530462629E-03
              -9.4223587376838953E-03
               1.0961075714607084E-02
               8.7805100797604622E-03
              -3.4855092183426932E-03
               5.9297802877756704E-03
               5.7018287260108148E-03
               2.1875042446243970E-03
              -1.3302084233047802E-02
               3.3429234836948093E-03
               8.2149829115800987E-03
              -1.0458331511669606E-02
               2.5981356098326420E-04
              -2.1131589709883004E-04
               3.4165061126792350E-03
              -5.4427954296217657E-04
              -3.3201365019410825E-03
               1.0697049942824541E-02
              -8.8065084416266085E-04
               2.8692105724901574E-03
              -4.9208610462119998E-03
              -4.2164416546083576E-03
              -2.1701315541215668E-03
              -3.5857004665661996E-03
               5.0662815731781930E-03
               2.3813047517625679E-03
              -3.5487922895103261E-03
              -1.5637627137874669E-03
              -3.8965004423728716E-03
               3.2966521515944390E-03
               8.2604559414417040E-03
               8.0914662940905131E-04
               7.4565704936137558E-03
              -3.1437435480063166E-03
               8.5138582433694626E-03
              -4.2357382832571497E-03
              -2.6786413896361864E-04
               5.9474107093651953E-03
               3.3539151179840391E-03
               4.3398004762670020E-03
               7.5058251232940640E-04
               6.2651740227701253E-03
               2.5001130759052612E-03
               1.3714480244621566E-03
              -1.4322306300733393E-02
               1.4013895213292528E-02
               7.9953127646915610E-03
              -1.6047495708117546E-02
              -1.0560425080923452E-02
               1.0958032916816398E-04
               7.5882821973225689E-03
               4.4666692667298764E-03
              -8.1873513463342675E-03
               4.6571570368446379E-03
               2.7190895377279673E-05
              -1.0258701097907169E-02
               9.7141624052271766E-03
              -2.0615418942464946E-02
              -2.4766484385577167E-03
               1.2996254583275760E-03
               7.7057137940229293E-03
               3.8932946957854994E-03
              -2.2227634101609547E-02
               7.6778910702124514E-03
               4.8272200687312656E-03
               2.0814415870798143E-03
               3.8062968565168447E-03
               5.8145137712437072E-03
              -6.0713889040963798E-03
              -7.1768460417318404E-04
               1.4620067147898822E-02
              -5.5338209146578929E-03
               4.5218974145035916E-03
              -2.5291038016914610E-03
              -6.9774522999571263E-03
              -8.1993558763728217E-03
              -2.2195401047902071E-04
               1.5769525838753413E-03
               1.4031128627042019E-03
              -3.8646746924268652E-04
              -5.1901712782076231E-03
               2.9371925912125706E-03
               4.2489431551665131E-03
               9.1054810634168422E-04
              -1.7738151047498327E-03
              -1.2829040615634783E-03
               1.0867996275538182E-03
              -1.1935671294604521E-03
               1.0497328265012262E-03
              -9.9028126976909397E-04
               6.8954792577479518E-03
               5.2028698082673096E-03
              -1.9448304060277675E-02
               2.3145634295430439E-03
              -2.1072086536362469E-03
              -2.6870628601390035E-03
              -6.8980677404430180E-04
              -1.9456052095452162E-03
              -2.7236137799013854E-03
              -1.9027151957100809E-03
               1.0507470714219379E-02
              -4.7594276576586915E-03
               2.7746208785306356E-03
               4.5948589417569496E-03
               1.2370898576355384E-04
              -7.9509879023192617E-04
              -3.2098131479246124E-03
               4.2005150057403432E-03
              -7.5790364752711449E-04
              -4.9475251804065234E-03
               1.9413984264144983E-03
              -1.6471896091766771E-03
              -1.0467524010569058E-02
               3.1284454674511504E-03
              -4.4432587354134795E-03
              -3.4714534192650547E-03
               4.6703893142699179E-03
               1.2955062420406657E-02
               1.5416900918128586E-02
               2.5195340969527075E-03
              -6.7325992341243871E-03
         &END THERMOSTAT_ENERGY
         &RNG_INIT
Wiener process for Thermostat # 1        1 F T T  -1.5601997779545997E+00        4027757407.0        1559045809.0        3403552754.0        1703120254.0         453778739.0        2861026355.0             12345.0             12345.0             12345.0             12345.0             12345.0             12345.0             12345.0             12345.0             12345.0             12345.0             12345.0             12345.0
Wiener process for Thermostat # 2        1 F T T  -4.0112764818655514E-02        3838101567.0        1430396723.0        1556923290.0        2889325561.0         607612135.0        3761282217.0        3692455944.0        1366884236.0        2968912127.0         335948734.0        4161675175.0         475798818.0        3692455944.0        1366884236.0        2968912127.0         335948734.0        4161675175.0         475798818.0
Wiener process for Thermostat # 3        1 F T T  -2.7485675335982579E-01         482699311.0        2506409672.0        1202736307.0        1073196783.0        1141297417.0        2856513754.0        1015873554.0        1310354410.0        2249465273.0         994084013.0        2912484720.0        3876682925.0        1015873554.0        1310354410.0        2249465273.0         994084013.0        2912484720.0        3876682925.0
Wiener process for Thermostat # 4        1 F T T  -9.8957058820594379E-01        3129827523.0        3549124345.0        1353678049.0        1344233659.0        2578763699.0        1106953444.0        2338701263.0        1119171942.0        2570676563.0         317077452.0        3194180850.0         618832124.0        2338701263.0        1119171942.0        2570676563.0         317077452.0        3194180850.0         618832124.0
Wiener process for Thermostat # 5        1 F T T   8.1743834600370391E-01         587879607.0         702838090.0         820286405.0        1159088393.0        1840431053.0        2379049004.0        1597262096.0        3906379055.0        3312112953.0        1016013135.0        4099474108.0         275305423.0        1597262096.0        3906379055.0        3312112953.0        1016013135.0        4099474108.0         275305423.0
Wiener process for Thermostat # 6        1 F T T  -4.6635220676026440E-01        1255338812.0        2941627828.0        2767710176.0        1701464963.0        2824905014.0        2257709657.0          97147054.0        3131372450.0         829345164.0        3691032523.0        3006063034.0        4259826321.0          97147054.0        3131372450.0         829345164.0        3691032523.0        3006063034.0        4259826321.0
Wiener process for Thermostat # 7        1 F T T  -2.7221417990508723E-01        2928923925.0        1475590831.0        3028549759.0        1729569924.0         123262326.0        1965188850.0         796079799.0        2105258207.0         955365076.0        2923159030.0        4116632677.0        3067683584.0         796079799.0        2105258207.0         955365076.0        2923159030.0        4116632677.0        3067683584.0
Wiener process for Thermostat # 8        1 F T T  -1.3371509559371584E+00        3293786404.0        2324351260.0        4224364702.0        1341956089.0         912321799.0        2697559406.0        3281794178.0        2616230133.0        1457051261.0        2762791137.0        2480527362.0        2282316169.0        3281794178.0        2616230133.0        1457051261.0        2762791137.0        2480527362.0        2282316169.0
Wiener process for Thermostat # 9        1 F T T  -8.7225140957356684E-01         657961678.0        1513147170.0        2219186603.0        4111646695.0         616753226.0        2747528653.0        3777646647.0        1837464056.0        4204654757.0         664239048.0        4190510072.0        2959195122.0        3777646647.0        1837464056.0        4204654757.0         664239048.0        4190510072.0        2959195122.0
Wiener process for Thermostat # 10       1 F T T  -6.2889449580622436E-01          96284293.0        2446379684.0        3801610533.0        2961863039.0        1877110468.0         129512113.0        4215590817.0        3862461878.0        1087200967.0        1544910132.0         936383720.0        1611370123.0        4215590817.0        3862461878.0        1087200967.0        1544910132.0         936383720.0        1611370123.0
Wiener process for Thermostat # 11       1 F T T   5.7191327297384098E-01         909895394.0        1862319182.0        2400367466.0        1201802882.0        2818881371.0          83822050.0        1683636369.0         362165168.0         814316280.0         869382050.0         980203903.0        2062101717.0        1683636369.0         362165168.0         814316280.0         869382050.0         980203903.0        2062101717.0
Wiener process for Thermostat # 12       1 F T T  -2.0098512161557830E-01        4281566709.0        2729512869.0         275332126.0         437149450.0        1041778670.0        1778805263.0         272317999.0         166758548.0         310112982.0         201045826.0        1680231254.0         118290799.0         272317999.0         166758548.0         310112982.0         201045826.0        1680231254.0         118290799.0
Wiener process for Thermostat # 13       1 F T T   9.4560796151122029E-01        3557498645.0        2583014714.0        2425630516.0         920535172.0        3770643442.0         978988578.0        2245755202.0        1652682525.0        2865544364.0         721509566.0         209733568.0         592362218.0        2245755202.0        1652682525.0        2865544364.0         721509566.0         209733568.0         592362218.0